Minimize
-1 l1 + -1 l49 + -1 l48 + -1 l22
 + -1 l20 + -1 l17 + -1 l18 + -1 l2
 + -1 l54 + -1 l62 + -1 l40 + -1 l41
 + -1 l47 + -1 l50 + -1 l4 + -1 l31
 + -1 l58 + -1 l27 + -1 l39 + -1 l25
 + -1 l36 + -1 l45 + -1 l51 + -1 l35
 + -1 l44 + -1 l57 + -1 l29 + -1 l26
 + -1 l37 + -1 l46 + -1 l42 + -1 l52
 + -1 l53 + -1 l59 + -1 l43 + -1 l13
 + -1 l56 + -1 l61 + -1 l28 + -1 l30
 + -1 l9 + -1 l14 + -1 l6 + -1 l38
 + -1 l32 + -1 l8 + -1 l33 + -1 l34
 + -1 l55 + -1 l60 + -1 l5 + -1 l3
 + -1 l0 + -1 l11 + -1 l21 + -1 l10
 + -1 l12 + -1 l19 + -1 l16 + -1 l23
 + -1 l7 + -1 l15 + -1 l24 + 1 u1
 + 1 u49 + 1 u48 + 1 u22 + 1 u20
 + 1 u17 + 1 u18 + 1 u2 + 1 u54
 + 1 u62 + 1 u40 + 1 u41 + 1 u47
 + 1 u50 + 1 u4 + 1 u31 + 1 u58
 + 1 u27 + 1 u39 + 1 u25 + 1 u36
 + 1 u45 + 1 u51 + 1 u35 + 1 u44
 + 1 u57 + 1 u29 + 1 u26 + 1 u37
 + 1 u46 + 1 u42 + 1 u52 + 1 u53
 + 1 u59 + 1 u43 + 1 u13 + 1 u56
 + 1 u61 + 1 u28 + 1 u30 + 1 u9
 + 1 u14 + 1 u6 + 1 u38 + 1 u32
 + 1 u8 + 1 u33 + 1 u34 + 1 u55
 + 1 u60 + 1 u5 + 1 u3 + 1 u0
 + 1 u11 + 1 u21 + 1 u10 + 1 u12
 + 1 u19 + 1 u16 + 1 u23 + 1 u7
 + 1 u15 + 1 u24

Subject To
C0: 1 x1 + -1 x50 <= -22
C1: 1 x1 + -1 x4 <= -22
C2: 1 x1 + -1 x27 <= -22
C3: 1 x1 + -1 x39 <= -22
C4: 1 x1 + -1 x25 <= -22
C5: 1 x1 + -1 x45 <= -22
C6: 1 x1 + -1 x51 <= -22
C7: 1 x1 + -1 x57 <= -22
C8: 1 x1 + -1 x29 <= -22
C9: 1 x1 + -1 x26 <= -22
C10: 1 x1 + -1 x37 <= -22
C11: 1 x1 + -1 x46 <= -22
C12: 1 x1 + -1 x53 <= -22
C13: 1 x1 + -1 x59 <= -22
C14: 1 x1 + -1 x43 <= -22
C15: 1 x1 + -1 x13 <= -22
C16: 1 x1 + -1 x56 <= -22
C17: 1 x1 + -1 x61 <= -22
C18: 1 x1 + -1 x28 <= -22
C19: 1 x1 + -1 x30 <= -22
C20: 1 x1 + -1 x9 <= -22
C21: 1 x1 + -1 x14 <= -22
C22: 1 x1 + -1 x6 <= -22
C23: 1 x1 + -1 x38 <= -22
C24: 1 x1 + -1 x32 <= -22
C25: 1 x1 + -1 x8 <= -22
C26: 1 x1 + -1 x33 <= -22
C27: 1 x1 + -1 x34 <= -22
C28: 1 x1 + -1 x55 <= -22
C29: 1 x1 + -1 x60 <= -22
C30: 1 x1 + -1 x5 <= -22
C31: 1 x1 + -1 x3 <= -22
C32: 1 x1 + -1 x0 <= -22
C33: 1 x1 + -1 x11 <= -22
C34: 1 x1 + -1 x21 <= -22
C35: 1 x1 + -1 x10 <= -22
C36: 1 x1 + -1 x12 <= -22
C37: 1 x1 + -1 x19 <= -22
C38: 1 x1 + -1 x16 <= -22
C39: 1 x1 + -1 x23 <= -22
C40: 1 x1 + -1 x7 <= -22
C41: 1 x1 + -1 x15 <= -22
C42: 1 x1 + -1 x24 <= -22
C43: 1 x49 + -1 x31 <= -32
C44: 1 x49 + -1 x58 <= -32
C45: 1 x49 + -1 x25 <= -32
C46: 1 x49 + -1 x36 <= -32
C47: 1 x49 + -1 x45 <= -32
C48: 1 x49 + -1 x51 <= -32
C49: 1 x49 + -1 x35 <= -32
C50: 1 x49 + -1 x44 <= -32
C51: 1 x49 + -1 x26 <= -32
C52: 1 x49 + -1 x37 <= -32
C53: 1 x49 + -1 x46 <= -32
C54: 1 x49 + -1 x52 <= -32
C55: 1 x49 + -1 x53 <= -32
C56: 1 x49 + -1 x59 <= -32
C57: 1 x49 + -1 x43 <= -32
C58: 1 x49 + -1 x56 <= -32
C59: 1 x49 + -1 x61 <= -32
C60: 1 x49 + -1 x28 <= -32
C61: 1 x49 + -1 x30 <= -32
C62: 1 x49 + -1 x9 <= -32
C63: 1 x49 + -1 x14 <= -32
C64: 1 x49 + -1 x6 <= -32
C65: 1 x49 + -1 x8 <= -32
C66: 1 x49 + -1 x33 <= -32
C67: 1 x49 + -1 x34 <= -32
C68: 1 x49 + -1 x55 <= -32
C69: 1 x49 + -1 x60 <= -32
C70: 1 x49 + -1 x5 <= -32
C71: 1 x49 + -1 x3 <= -32
C72: 1 x49 + -1 x0 <= -32
C73: 1 x49 + -1 x11 <= -32
C74: 1 x49 + -1 x21 <= -32
C75: 1 x49 + -1 x10 <= -32
C76: 1 x49 + -1 x12 <= -32
C77: 1 x49 + -1 x19 <= -32
C78: 1 x49 + -1 x16 <= -32
C79: 1 x49 + -1 x23 <= -32
C80: 1 x49 + -1 x7 <= -32
C81: 1 x49 + -1 x15 <= -32
C82: 1 x49 + -1 x24 <= -32
C83: 1 x48 + -1 x31 <= -32
C84: 1 x48 + -1 x25 <= -32
C85: 1 x48 + -1 x36 <= -32
C86: 1 x48 + -1 x45 <= -32
C87: 1 x48 + -1 x51 <= -32
C88: 1 x48 + -1 x35 <= -32
C89: 1 x48 + -1 x44 <= -32
C90: 1 x48 + -1 x26 <= -32
C91: 1 x48 + -1 x37 <= -32
C92: 1 x48 + -1 x46 <= -32
C93: 1 x48 + -1 x52 <= -32
C94: 1 x48 + -1 x53 <= -32
C95: 1 x48 + -1 x59 <= -32
C96: 1 x48 + -1 x43 <= -32
C97: 1 x48 + -1 x56 <= -32
C98: 1 x48 + -1 x61 <= -32
C99: 1 x48 + -1 x28 <= -32
C100: 1 x48 + -1 x30 <= -32
C101: 1 x48 + -1 x9 <= -32
C102: 1 x48 + -1 x14 <= -32
C103: 1 x48 + -1 x6 <= -32
C104: 1 x48 + -1 x8 <= -32
C105: 1 x48 + -1 x33 <= -32
C106: 1 x48 + -1 x34 <= -32
C107: 1 x48 + -1 x55 <= -32
C108: 1 x48 + -1 x60 <= -32
C109: 1 x48 + -1 x5 <= -32
C110: 1 x48 + -1 x3 <= -32
C111: 1 x48 + -1 x0 <= -32
C112: 1 x48 + -1 x11 <= -32
C113: 1 x48 + -1 x21 <= -32
C114: 1 x48 + -1 x10 <= -32
C115: 1 x48 + -1 x12 <= -32
C116: 1 x48 + -1 x19 <= -32
C117: 1 x48 + -1 x16 <= -32
C118: 1 x48 + -1 x23 <= -32
C119: 1 x48 + -1 x7 <= -32
C120: 1 x48 + -1 x15 <= -32
C121: 1 x48 + -1 x24 <= -32
C122: 1 x22 + -1 x47 <= -20
C123: 1 x22 + -1 x39 <= -20
C124: 1 x22 + -1 x57 <= -20
C125: 1 x22 + -1 x29 <= -20
C126: 1 x22 + -1 x46 <= -20
C127: 1 x22 + -1 x42 <= -20
C128: 1 x22 + -1 x53 <= -20
C129: 1 x22 + -1 x59 <= -20
C130: 1 x22 + -1 x43 <= -20
C131: 1 x22 + -1 x13 <= -20
C132: 1 x22 + -1 x61 <= -20
C133: 1 x22 + -1 x28 <= -20
C134: 1 x22 + -1 x30 <= -20
C135: 1 x22 + -1 x9 <= -20
C136: 1 x22 + -1 x14 <= -20
C137: 1 x22 + -1 x38 <= -20
C138: 1 x22 + -1 x32 <= -20
C139: 1 x22 + -1 x8 <= -20
C140: 1 x22 + -1 x33 <= -20
C141: 1 x22 + -1 x55 <= -20
C142: 1 x22 + -1 x60 <= -20
C143: 1 x22 + -1 x5 <= -20
C144: 1 x22 + -1 x3 <= -20
C145: 1 x22 + -1 x0 <= -20
C146: 1 x22 + -1 x11 <= -20
C147: 1 x22 + -1 x21 <= -20
C148: 1 x22 + -1 x10 <= -20
C149: 1 x22 + -1 x12 <= -20
C150: 1 x22 + -1 x19 <= -20
C151: 1 x22 + -1 x16 <= -20
C152: 1 x22 + -1 x23 <= -20
C153: 1 x22 + -1 x7 <= -20
C154: 1 x20 + -1 x47 <= -20
C155: 1 x20 + -1 x39 <= -20
C156: 1 x20 + -1 x51 <= -20
C157: 1 x20 + -1 x57 <= -20
C158: 1 x20 + -1 x29 <= -20
C159: 1 x20 + -1 x46 <= -20
C160: 1 x20 + -1 x42 <= -20
C161: 1 x20 + -1 x53 <= -20
C162: 1 x20 + -1 x59 <= -20
C163: 1 x20 + -1 x43 <= -20
C164: 1 x20 + -1 x13 <= -20
C165: 1 x20 + -1 x61 <= -20
C166: 1 x20 + -1 x28 <= -20
C167: 1 x20 + -1 x30 <= -20
C168: 1 x20 + -1 x9 <= -20
C169: 1 x20 + -1 x14 <= -20
C170: 1 x20 + -1 x38 <= -20
C171: 1 x20 + -1 x32 <= -20
C172: 1 x20 + -1 x8 <= -20
C173: 1 x20 + -1 x33 <= -20
C174: 1 x20 + -1 x55 <= -20
C175: 1 x20 + -1 x60 <= -20
C176: 1 x20 + -1 x5 <= -20
C177: 1 x20 + -1 x3 <= -20
C178: 1 x20 + -1 x0 <= -20
C179: 1 x20 + -1 x11 <= -20
C180: 1 x20 + -1 x21 <= -20
C181: 1 x20 + -1 x10 <= -20
C182: 1 x20 + -1 x12 <= -20
C183: 1 x20 + -1 x19 <= -20
C184: 1 x20 + -1 x16 <= -20
C185: 1 x20 + -1 x23 <= -20
C186: 1 x20 + -1 x7 <= -20
C187: 1 x17 + -1 x4 <= -20
C188: 1 x17 + -1 x39 <= -20
C189: 1 x17 + -1 x45 <= -20
C190: 1 x17 + -1 x51 <= -20
C191: 1 x17 + -1 x57 <= -20
C192: 1 x17 + -1 x29 <= -20
C193: 1 x17 + -1 x26 <= -20
C194: 1 x17 + -1 x37 <= -20
C195: 1 x17 + -1 x46 <= -20
C196: 1 x17 + -1 x42 <= -20
C197: 1 x17 + -1 x53 <= -20
C198: 1 x17 + -1 x59 <= -20
C199: 1 x17 + -1 x43 <= -20
C200: 1 x17 + -1 x13 <= -20
C201: 1 x17 + -1 x56 <= -20
C202: 1 x17 + -1 x61 <= -20
C203: 1 x17 + -1 x28 <= -20
C204: 1 x17 + -1 x30 <= -20
C205: 1 x17 + -1 x9 <= -20
C206: 1 x17 + -1 x14 <= -20
C207: 1 x17 + -1 x38 <= -20
C208: 1 x17 + -1 x32 <= -20
C209: 1 x17 + -1 x8 <= -20
C210: 1 x17 + -1 x33 <= -20
C211: 1 x17 + -1 x34 <= -20
C212: 1 x17 + -1 x55 <= -20
C213: 1 x17 + -1 x60 <= -20
C214: 1 x17 + -1 x5 <= -20
C215: 1 x17 + -1 x3 <= -20
C216: 1 x17 + -1 x0 <= -20
C217: 1 x17 + -1 x11 <= -20
C218: 1 x17 + -1 x21 <= -20
C219: 1 x17 + -1 x10 <= -20
C220: 1 x17 + -1 x12 <= -20
C221: 1 x17 + -1 x19 <= -20
C222: 1 x17 + -1 x16 <= -20
C223: 1 x17 + -1 x23 <= -20
C224: 1 x17 + -1 x7 <= -20
C225: 1 x17 + -1 x15 <= -20
C226: 1 x17 + -1 x24 <= -20
C227: 1 x18 + -1 x50 <= -20
C228: 1 x18 + -1 x27 <= -20
C229: 1 x18 + -1 x39 <= -20
C230: 1 x18 + -1 x25 <= -20
C231: 1 x18 + -1 x45 <= -20
C232: 1 x18 + -1 x51 <= -20
C233: 1 x18 + -1 x29 <= -20
C234: 1 x18 + -1 x26 <= -20
C235: 1 x18 + -1 x37 <= -20
C236: 1 x18 + -1 x46 <= -20
C237: 1 x18 + -1 x53 <= -20
C238: 1 x18 + -1 x59 <= -20
C239: 1 x18 + -1 x43 <= -20
C240: 1 x18 + -1 x13 <= -20
C241: 1 x18 + -1 x56 <= -20
C242: 1 x18 + -1 x61 <= -20
C243: 1 x18 + -1 x28 <= -20
C244: 1 x18 + -1 x30 <= -20
C245: 1 x18 + -1 x9 <= -20
C246: 1 x18 + -1 x14 <= -20
C247: 1 x18 + -1 x6 <= -20
C248: 1 x18 + -1 x38 <= -20
C249: 1 x18 + -1 x32 <= -20
C250: 1 x18 + -1 x8 <= -20
C251: 1 x18 + -1 x33 <= -20
C252: 1 x18 + -1 x34 <= -20
C253: 1 x18 + -1 x55 <= -20
C254: 1 x18 + -1 x60 <= -20
C255: 1 x18 + -1 x5 <= -20
C256: 1 x18 + -1 x3 <= -20
C257: 1 x18 + -1 x0 <= -20
C258: 1 x18 + -1 x11 <= -20
C259: 1 x18 + -1 x21 <= -20
C260: 1 x18 + -1 x10 <= -20
C261: 1 x18 + -1 x12 <= -20
C262: 1 x18 + -1 x19 <= -20
C263: 1 x18 + -1 x16 <= -20
C264: 1 x18 + -1 x23 <= -20
C265: 1 x18 + -1 x7 <= -20
C266: 1 x18 + -1 x15 <= -20
C267: 1 x18 + -1 x24 <= -20
C268: 1 x2 + -1 x39 <= -22
C269: 1 x2 + -1 x51 <= -22
C270: 1 x2 + -1 x57 <= -22
C271: 1 x2 + -1 x29 <= -22
C272: 1 x2 + -1 x46 <= -22
C273: 1 x2 + -1 x42 <= -22
C274: 1 x2 + -1 x53 <= -22
C275: 1 x2 + -1 x59 <= -22
C276: 1 x2 + -1 x43 <= -22
C277: 1 x2 + -1 x13 <= -22
C278: 1 x2 + -1 x61 <= -22
C279: 1 x2 + -1 x28 <= -22
C280: 1 x2 + -1 x30 <= -22
C281: 1 x2 + -1 x9 <= -22
C282: 1 x2 + -1 x14 <= -22
C283: 1 x2 + -1 x38 <= -22
C284: 1 x2 + -1 x32 <= -22
C285: 1 x2 + -1 x8 <= -22
C286: 1 x2 + -1 x33 <= -22
C287: 1 x2 + -1 x34 <= -22
C288: 1 x2 + -1 x55 <= -22
C289: 1 x2 + -1 x60 <= -22
C290: 1 x2 + -1 x5 <= -22
C291: 1 x2 + -1 x3 <= -22
C292: 1 x2 + -1 x0 <= -22
C293: 1 x2 + -1 x11 <= -22
C294: 1 x2 + -1 x21 <= -22
C295: 1 x2 + -1 x10 <= -22
C296: 1 x2 + -1 x12 <= -22
C297: 1 x2 + -1 x19 <= -22
C298: 1 x2 + -1 x16 <= -22
C299: 1 x2 + -1 x23 <= -22
C300: 1 x2 + -1 x7 <= -22
C301: 1 x54 + -1 x27 <= -32
C302: 1 x54 + -1 x39 <= -32
C303: 1 x54 + -1 x25 <= -32
C304: 1 x54 + -1 x36 <= -32
C305: 1 x54 + -1 x45 <= -32
C306: 1 x54 + -1 x51 <= -32
C307: 1 x54 + -1 x35 <= -32
C308: 1 x54 + -1 x26 <= -32
C309: 1 x54 + -1 x37 <= -32
C310: 1 x54 + -1 x46 <= -32
C311: 1 x54 + -1 x53 <= -32
C312: 1 x54 + -1 x59 <= -32
C313: 1 x54 + -1 x43 <= -32
C314: 1 x54 + -1 x13 <= -32
C315: 1 x54 + -1 x56 <= -32
C316: 1 x54 + -1 x61 <= -32
C317: 1 x54 + -1 x28 <= -32
C318: 1 x54 + -1 x30 <= -32
C319: 1 x54 + -1 x9 <= -32
C320: 1 x54 + -1 x14 <= -32
C321: 1 x54 + -1 x6 <= -32
C322: 1 x54 + -1 x38 <= -32
C323: 1 x54 + -1 x32 <= -32
C324: 1 x54 + -1 x8 <= -32
C325: 1 x54 + -1 x33 <= -32
C326: 1 x54 + -1 x34 <= -32
C327: 1 x54 + -1 x55 <= -32
C328: 1 x54 + -1 x60 <= -32
C329: 1 x54 + -1 x5 <= -32
C330: 1 x54 + -1 x3 <= -32
C331: 1 x54 + -1 x0 <= -32
C332: 1 x54 + -1 x11 <= -32
C333: 1 x54 + -1 x21 <= -32
C334: 1 x54 + -1 x10 <= -32
C335: 1 x54 + -1 x12 <= -32
C336: 1 x54 + -1 x19 <= -32
C337: 1 x54 + -1 x16 <= -32
C338: 1 x54 + -1 x23 <= -32
C339: 1 x54 + -1 x7 <= -32
C340: 1 x54 + -1 x15 <= -32
C341: 1 x54 + -1 x24 <= -32
C342: 1 x62 + -1 x58 <= -32
C343: 1 x62 + -1 x27 <= -32
C344: 1 x62 + -1 x25 <= -32
C345: 1 x62 + -1 x36 <= -32
C346: 1 x62 + -1 x45 <= -32
C347: 1 x62 + -1 x51 <= -32
C348: 1 x62 + -1 x35 <= -32
C349: 1 x62 + -1 x44 <= -32
C350: 1 x62 + -1 x26 <= -32
C351: 1 x62 + -1 x37 <= -32
C352: 1 x62 + -1 x46 <= -32
C353: 1 x62 + -1 x53 <= -32
C354: 1 x62 + -1 x59 <= -32
C355: 1 x62 + -1 x43 <= -32
C356: 1 x62 + -1 x13 <= -32
C357: 1 x62 + -1 x56 <= -32
C358: 1 x62 + -1 x61 <= -32
C359: 1 x62 + -1 x28 <= -32
C360: 1 x62 + -1 x30 <= -32
C361: 1 x62 + -1 x9 <= -32
C362: 1 x62 + -1 x14 <= -32
C363: 1 x62 + -1 x6 <= -32
C364: 1 x62 + -1 x38 <= -32
C365: 1 x62 + -1 x8 <= -32
C366: 1 x62 + -1 x33 <= -32
C367: 1 x62 + -1 x34 <= -32
C368: 1 x62 + -1 x55 <= -32
C369: 1 x62 + -1 x60 <= -32
C370: 1 x62 + -1 x5 <= -32
C371: 1 x62 + -1 x3 <= -32
C372: 1 x62 + -1 x0 <= -32
C373: 1 x62 + -1 x11 <= -32
C374: 1 x62 + -1 x21 <= -32
C375: 1 x62 + -1 x10 <= -32
C376: 1 x62 + -1 x12 <= -32
C377: 1 x62 + -1 x19 <= -32
C378: 1 x62 + -1 x16 <= -32
C379: 1 x62 + -1 x23 <= -32
C380: 1 x62 + -1 x7 <= -32
C381: 1 x62 + -1 x15 <= -32
C382: 1 x62 + -1 x24 <= -32
C383: 1 x40 + -1 x57 <= -90
C384: 1 x40 + -1 x29 <= -90
C385: 1 x40 + -1 x42 <= -90
C386: 1 x40 + -1 x43 <= -90
C387: 1 x40 + -1 x13 <= -90
C388: 1 x40 + -1 x14 <= -90
C389: 1 x40 + -1 x38 <= -90
C390: 1 x40 + -1 x32 <= -90
C391: 1 x40 + -1 x33 <= -90
C392: 1 x40 + -1 x55 <= -90
C393: 1 x40 + -1 x5 <= -90
C394: 1 x40 + -1 x11 <= -90
C395: 1 x40 + -1 x21 <= -90
C396: 1 x40 + -1 x10 <= -90
C397: 1 x40 + -1 x12 <= -90
C398: 1 x40 + -1 x19 <= -90
C399: 1 x41 + -1 x35 <= -90
C400: 1 x41 + -1 x44 <= -90
C401: 1 x41 + -1 x37 <= -90
C402: 1 x41 + -1 x52 <= -90
C403: 1 x41 + -1 x53 <= -90
C404: 1 x41 + -1 x56 <= -90
C405: 1 x41 + -1 x61 <= -90
C406: 1 x41 + -1 x28 <= -90
C407: 1 x41 + -1 x30 <= -90
C408: 1 x41 + -1 x9 <= -90
C409: 1 x41 + -1 x6 <= -90
C410: 1 x41 + -1 x8 <= -90
C411: 1 x41 + -1 x34 <= -90
C412: 1 x41 + -1 x55 <= -90
C413: 1 x41 + -1 x60 <= -90
C414: 1 x41 + -1 x5 <= -90
C415: 1 x41 + -1 x3 <= -90
C416: 1 x41 + -1 x0 <= -90
C417: 1 x41 + -1 x21 <= -90
C418: 1 x41 + -1 x10 <= -90
C419: 1 x41 + -1 x12 <= -90
C420: 1 x41 + -1 x19 <= -90
C421: 1 x41 + -1 x16 <= -90
C422: 1 x41 + -1 x23 <= -90
C423: 1 x41 + -1 x7 <= -90
C424: 1 x41 + -1 x15 <= -90
C425: 1 x41 + -1 x24 <= -90
C426: 1 x47 + -1 x39 <= -32
C427: 1 x47 + -1 x57 <= -32
C428: 1 x47 + -1 x29 <= -32
C429: 1 x47 + -1 x42 <= -32
C430: 1 x47 + -1 x59 <= -32
C431: 1 x47 + -1 x43 <= -32
C432: 1 x47 + -1 x13 <= -32
C433: 1 x47 + -1 x61 <= -32
C434: 1 x47 + -1 x30 <= -32
C435: 1 x47 + -1 x9 <= -32
C436: 1 x47 + -1 x14 <= -32
C437: 1 x47 + -1 x38 <= -32
C438: 1 x47 + -1 x32 <= -32
C439: 1 x47 + -1 x8 <= -32
C440: 1 x47 + -1 x33 <= -32
C441: 1 x47 + -1 x55 <= -32
C442: 1 x47 + -1 x60 <= -32
C443: 1 x47 + -1 x5 <= -32
C444: 1 x47 + -1 x3 <= -32
C445: 1 x47 + -1 x0 <= -32
C446: 1 x47 + -1 x11 <= -32
C447: 1 x47 + -1 x21 <= -32
C448: 1 x47 + -1 x10 <= -32
C449: 1 x47 + -1 x12 <= -32
C450: 1 x47 + -1 x19 <= -32
C451: 1 x47 + -1 x16 <= -32
C452: 1 x47 + -1 x23 <= -32
C453: 1 x47 + -1 x7 <= -32
C454: 1 x50 + -1 x39 <= -32
C455: 1 x50 + -1 x45 <= -32
C456: 1 x50 + -1 x51 <= -32
C457: 1 x50 + -1 x29 <= -32
C458: 1 x50 + -1 x26 <= -32
C459: 1 x50 + -1 x37 <= -32
C460: 1 x50 + -1 x46 <= -32
C461: 1 x50 + -1 x53 <= -32
C462: 1 x50 + -1 x59 <= -32
C463: 1 x50 + -1 x43 <= -32
C464: 1 x50 + -1 x13 <= -32
C465: 1 x50 + -1 x56 <= -32
C466: 1 x50 + -1 x61 <= -32
C467: 1 x50 + -1 x28 <= -32
C468: 1 x50 + -1 x30 <= -32
C469: 1 x50 + -1 x9 <= -32
C470: 1 x50 + -1 x14 <= -32
C471: 1 x50 + -1 x38 <= -32
C472: 1 x50 + -1 x32 <= -32
C473: 1 x50 + -1 x8 <= -32
C474: 1 x50 + -1 x33 <= -32
C475: 1 x50 + -1 x34 <= -32
C476: 1 x50 + -1 x55 <= -32
C477: 1 x50 + -1 x60 <= -32
C478: 1 x50 + -1 x5 <= -32
C479: 1 x50 + -1 x3 <= -32
C480: 1 x50 + -1 x0 <= -32
C481: 1 x50 + -1 x11 <= -32
C482: 1 x50 + -1 x21 <= -32
C483: 1 x50 + -1 x10 <= -32
C484: 1 x50 + -1 x12 <= -32
C485: 1 x50 + -1 x19 <= -32
C486: 1 x50 + -1 x16 <= -32
C487: 1 x50 + -1 x23 <= -32
C488: 1 x50 + -1 x7 <= -32
C489: 1 x50 + -1 x15 <= -32
C490: 1 x50 + -1 x24 <= -32
C491: 1 x4 + -1 x39 <= -22
C492: 1 x4 + -1 x51 <= -22
C493: 1 x4 + -1 x29 <= -22
C494: 1 x4 + -1 x46 <= -22
C495: 1 x4 + -1 x53 <= -22
C496: 1 x4 + -1 x59 <= -22
C497: 1 x4 + -1 x43 <= -22
C498: 1 x4 + -1 x13 <= -22
C499: 1 x4 + -1 x61 <= -22
C500: 1 x4 + -1 x28 <= -22
C501: 1 x4 + -1 x30 <= -22
C502: 1 x4 + -1 x9 <= -22
C503: 1 x4 + -1 x14 <= -22
C504: 1 x4 + -1 x38 <= -22
C505: 1 x4 + -1 x32 <= -22
C506: 1 x4 + -1 x8 <= -22
C507: 1 x4 + -1 x33 <= -22
C508: 1 x4 + -1 x34 <= -22
C509: 1 x4 + -1 x55 <= -22
C510: 1 x4 + -1 x60 <= -22
C511: 1 x4 + -1 x5 <= -22
C512: 1 x4 + -1 x3 <= -22
C513: 1 x4 + -1 x0 <= -22
C514: 1 x4 + -1 x11 <= -22
C515: 1 x4 + -1 x21 <= -22
C516: 1 x4 + -1 x10 <= -22
C517: 1 x4 + -1 x12 <= -22
C518: 1 x4 + -1 x19 <= -22
C519: 1 x4 + -1 x16 <= -22
C520: 1 x4 + -1 x23 <= -22
C521: 1 x4 + -1 x7 <= -22
C522: 1 x31 + -1 x36 <= -45
C523: 1 x31 + -1 x45 <= -45
C524: 1 x31 + -1 x35 <= -45
C525: 1 x31 + -1 x44 <= -45
C526: 1 x31 + -1 x26 <= -45
C527: 1 x31 + -1 x37 <= -45
C528: 1 x31 + -1 x46 <= -45
C529: 1 x31 + -1 x53 <= -45
C530: 1 x31 + -1 x59 <= -45
C531: 1 x31 + -1 x56 <= -45
C532: 1 x31 + -1 x61 <= -45
C533: 1 x31 + -1 x28 <= -45
C534: 1 x31 + -1 x30 <= -45
C535: 1 x31 + -1 x9 <= -45
C536: 1 x31 + -1 x14 <= -45
C537: 1 x31 + -1 x6 <= -45
C538: 1 x31 + -1 x8 <= -45
C539: 1 x31 + -1 x34 <= -45
C540: 1 x31 + -1 x55 <= -45
C541: 1 x31 + -1 x60 <= -45
C542: 1 x31 + -1 x5 <= -45
C543: 1 x31 + -1 x3 <= -45
C544: 1 x31 + -1 x0 <= -45
C545: 1 x31 + -1 x21 <= -45
C546: 1 x31 + -1 x10 <= -45
C547: 1 x31 + -1 x12 <= -45
C548: 1 x31 + -1 x19 <= -45
C549: 1 x31 + -1 x16 <= -45
C550: 1 x31 + -1 x23 <= -45
C551: 1 x31 + -1 x7 <= -45
C552: 1 x31 + -1 x15 <= -45
C553: 1 x31 + -1 x24 <= -45
C554: 1 x58 + -1 x25 <= -32
C555: 1 x58 + -1 x45 <= -32
C556: 1 x58 + -1 x51 <= -32
C557: 1 x58 + -1 x26 <= -32
C558: 1 x58 + -1 x37 <= -32
C559: 1 x58 + -1 x46 <= -32
C560: 1 x58 + -1 x53 <= -32
C561: 1 x58 + -1 x59 <= -32
C562: 1 x58 + -1 x43 <= -32
C563: 1 x58 + -1 x56 <= -32
C564: 1 x58 + -1 x61 <= -32
C565: 1 x58 + -1 x28 <= -32
C566: 1 x58 + -1 x30 <= -32
C567: 1 x58 + -1 x9 <= -32
C568: 1 x58 + -1 x14 <= -32
C569: 1 x58 + -1 x6 <= -32
C570: 1 x58 + -1 x8 <= -32
C571: 1 x58 + -1 x33 <= -32
C572: 1 x58 + -1 x34 <= -32
C573: 1 x58 + -1 x55 <= -32
C574: 1 x58 + -1 x60 <= -32
C575: 1 x58 + -1 x5 <= -32
C576: 1 x58 + -1 x3 <= -32
C577: 1 x58 + -1 x0 <= -32
C578: 1 x58 + -1 x11 <= -32
C579: 1 x58 + -1 x21 <= -32
C580: 1 x58 + -1 x10 <= -32
C581: 1 x58 + -1 x12 <= -32
C582: 1 x58 + -1 x19 <= -32
C583: 1 x58 + -1 x16 <= -32
C584: 1 x58 + -1 x23 <= -32
C585: 1 x58 + -1 x7 <= -32
C586: 1 x58 + -1 x15 <= -32
C587: 1 x58 + -1 x24 <= -32
C588: 1 x27 + -1 x45 <= -45
C589: 1 x27 + -1 x51 <= -45
C590: 1 x27 + -1 x26 <= -45
C591: 1 x27 + -1 x46 <= -45
C592: 1 x27 + -1 x53 <= -45
C593: 1 x27 + -1 x59 <= -45
C594: 1 x27 + -1 x43 <= -45
C595: 1 x27 + -1 x56 <= -45
C596: 1 x27 + -1 x61 <= -45
C597: 1 x27 + -1 x28 <= -45
C598: 1 x27 + -1 x30 <= -45
C599: 1 x27 + -1 x9 <= -45
C600: 1 x27 + -1 x14 <= -45
C601: 1 x27 + -1 x8 <= -45
C602: 1 x27 + -1 x33 <= -45
C603: 1 x27 + -1 x34 <= -45
C604: 1 x27 + -1 x55 <= -45
C605: 1 x27 + -1 x60 <= -45
C606: 1 x27 + -1 x5 <= -45
C607: 1 x27 + -1 x3 <= -45
C608: 1 x27 + -1 x0 <= -45
C609: 1 x27 + -1 x11 <= -45
C610: 1 x27 + -1 x21 <= -45
C611: 1 x27 + -1 x10 <= -45
C612: 1 x27 + -1 x12 <= -45
C613: 1 x27 + -1 x19 <= -45
C614: 1 x27 + -1 x16 <= -45
C615: 1 x27 + -1 x23 <= -45
C616: 1 x27 + -1 x7 <= -45
C617: 1 x27 + -1 x15 <= -45
C618: 1 x39 + -1 x59 <= -90
C619: 1 x39 + -1 x43 <= -90
C620: 1 x39 + -1 x13 <= -90
C621: 1 x39 + -1 x61 <= -90
C622: 1 x39 + -1 x30 <= -90
C623: 1 x39 + -1 x14 <= -90
C624: 1 x39 + -1 x38 <= -90
C625: 1 x39 + -1 x8 <= -90
C626: 1 x39 + -1 x33 <= -90
C627: 1 x39 + -1 x55 <= -90
C628: 1 x39 + -1 x60 <= -90
C629: 1 x39 + -1 x5 <= -90
C630: 1 x39 + -1 x3 <= -90
C631: 1 x39 + -1 x11 <= -90
C632: 1 x39 + -1 x21 <= -90
C633: 1 x39 + -1 x10 <= -90
C634: 1 x39 + -1 x12 <= -90
C635: 1 x39 + -1 x19 <= -90
C636: 1 x39 + -1 x16 <= -90
C637: 1 x39 + -1 x23 <= -90
C638: 1 x25 + -1 x45 <= -20
C639: 1 x25 + -1 x51 <= -20
C640: 1 x25 + -1 x26 <= -20
C641: 1 x25 + -1 x37 <= -20
C642: 1 x25 + -1 x46 <= -20
C643: 1 x25 + -1 x53 <= -20
C644: 1 x25 + -1 x59 <= -20
C645: 1 x25 + -1 x43 <= -20
C646: 1 x25 + -1 x56 <= -20
C647: 1 x25 + -1 x61 <= -20
C648: 1 x25 + -1 x28 <= -20
C649: 1 x25 + -1 x30 <= -20
C650: 1 x25 + -1 x9 <= -20
C651: 1 x25 + -1 x14 <= -20
C652: 1 x25 + -1 x8 <= -20
C653: 1 x25 + -1 x33 <= -20
C654: 1 x25 + -1 x34 <= -20
C655: 1 x25 + -1 x55 <= -20
C656: 1 x25 + -1 x60 <= -20
C657: 1 x25 + -1 x5 <= -20
C658: 1 x25 + -1 x3 <= -20
C659: 1 x25 + -1 x0 <= -20
C660: 1 x25 + -1 x11 <= -20
C661: 1 x25 + -1 x21 <= -20
C662: 1 x25 + -1 x10 <= -20
C663: 1 x25 + -1 x12 <= -20
C664: 1 x25 + -1 x19 <= -20
C665: 1 x25 + -1 x16 <= -20
C666: 1 x25 + -1 x23 <= -20
C667: 1 x25 + -1 x7 <= -20
C668: 1 x25 + -1 x15 <= -20
C669: 1 x25 + -1 x24 <= -20
C670: 1 x36 + -1 x26 <= -45
C671: 1 x36 + -1 x37 <= -45
C672: 1 x36 + -1 x53 <= -45
C673: 1 x36 + -1 x56 <= -45
C674: 1 x36 + -1 x61 <= -45
C675: 1 x36 + -1 x28 <= -45
C676: 1 x36 + -1 x30 <= -45
C677: 1 x36 + -1 x9 <= -45
C678: 1 x36 + -1 x6 <= -45
C679: 1 x36 + -1 x8 <= -45
C680: 1 x36 + -1 x34 <= -45
C681: 1 x36 + -1 x55 <= -45
C682: 1 x36 + -1 x60 <= -45
C683: 1 x36 + -1 x5 <= -45
C684: 1 x36 + -1 x3 <= -45
C685: 1 x36 + -1 x0 <= -45
C686: 1 x36 + -1 x21 <= -45
C687: 1 x36 + -1 x10 <= -45
C688: 1 x36 + -1 x12 <= -45
C689: 1 x36 + -1 x19 <= -45
C690: 1 x36 + -1 x16 <= -45
C691: 1 x36 + -1 x23 <= -45
C692: 1 x36 + -1 x7 <= -45
C693: 1 x36 + -1 x15 <= -45
C694: 1 x36 + -1 x24 <= -45
C695: 1 x45 + -1 x26 <= -32
C696: 1 x45 + -1 x46 <= -32
C697: 1 x45 + -1 x53 <= -32
C698: 1 x45 + -1 x59 <= -32
C699: 1 x45 + -1 x61 <= -32
C700: 1 x45 + -1 x28 <= -32
C701: 1 x45 + -1 x30 <= -32
C702: 1 x45 + -1 x9 <= -32
C703: 1 x45 + -1 x14 <= -32
C704: 1 x45 + -1 x8 <= -32
C705: 1 x45 + -1 x34 <= -32
C706: 1 x45 + -1 x55 <= -32
C707: 1 x45 + -1 x60 <= -32
C708: 1 x45 + -1 x5 <= -32
C709: 1 x45 + -1 x3 <= -32
C710: 1 x45 + -1 x0 <= -32
C711: 1 x45 + -1 x21 <= -32
C712: 1 x45 + -1 x10 <= -32
C713: 1 x45 + -1 x12 <= -32
C714: 1 x45 + -1 x19 <= -32
C715: 1 x45 + -1 x16 <= -32
C716: 1 x45 + -1 x23 <= -32
C717: 1 x45 + -1 x7 <= -32
C718: 1 x45 + -1 x15 <= -32
C719: 1 x51 + -1 x46 <= -32
C720: 1 x51 + -1 x53 <= -32
C721: 1 x51 + -1 x59 <= -32
C722: 1 x51 + -1 x61 <= -32
C723: 1 x51 + -1 x28 <= -32
C724: 1 x51 + -1 x30 <= -32
C725: 1 x51 + -1 x9 <= -32
C726: 1 x51 + -1 x14 <= -32
C727: 1 x51 + -1 x8 <= -32
C728: 1 x51 + -1 x55 <= -32
C729: 1 x51 + -1 x60 <= -32
C730: 1 x51 + -1 x5 <= -32
C731: 1 x51 + -1 x3 <= -32
C732: 1 x51 + -1 x0 <= -32
C733: 1 x51 + -1 x21 <= -32
C734: 1 x51 + -1 x10 <= -32
C735: 1 x51 + -1 x12 <= -32
C736: 1 x51 + -1 x19 <= -32
C737: 1 x51 + -1 x16 <= -32
C738: 1 x51 + -1 x23 <= -32
C739: 1 x51 + -1 x7 <= -32
C740: 1 x35 + -1 x56 <= -45
C741: 1 x35 + -1 x28 <= -45
C742: 1 x35 + -1 x9 <= -45
C743: 1 x35 + -1 x6 <= -45
C744: 1 x35 + -1 x8 <= -45
C745: 1 x35 + -1 x34 <= -45
C746: 1 x35 + -1 x60 <= -45
C747: 1 x35 + -1 x5 <= -45
C748: 1 x35 + -1 x3 <= -45
C749: 1 x35 + -1 x0 <= -45
C750: 1 x35 + -1 x12 <= -45
C751: 1 x35 + -1 x19 <= -45
C752: 1 x35 + -1 x16 <= -45
C753: 1 x35 + -1 x23 <= -45
C754: 1 x35 + -1 x7 <= -45
C755: 1 x35 + -1 x15 <= -45
C756: 1 x35 + -1 x24 <= -45
C757: 1 x44 + -1 x6 <= -71
C758: 1 x44 + -1 x34 <= -71
C759: 1 x44 + -1 x60 <= -71
C760: 1 x44 + -1 x0 <= -71
C761: 1 x44 + -1 x23 <= -71
C762: 1 x44 + -1 x7 <= -71
C763: 1 x44 + -1 x15 <= -71
C764: 1 x44 + -1 x24 <= -71
C765: 1 x57 + -1 x13 <= -32
C766: 1 x57 + -1 x38 <= -32
C767: 1 x57 + -1 x32 <= -32
C768: 1 x57 + -1 x33 <= -32
C769: 1 x57 + -1 x55 <= -32
C770: 1 x57 + -1 x11 <= -32
C771: 1 x29 + -1 x13 <= -45
C772: 1 x29 + -1 x38 <= -45
C773: 1 x29 + -1 x33 <= -45
C774: 1 x29 + -1 x55 <= -45
C775: 1 x29 + -1 x11 <= -45
C776: 1 x29 + -1 x21 <= -45
C777: 1 x26 + -1 x53 <= -20
C778: 1 x26 + -1 x61 <= -20
C779: 1 x26 + -1 x28 <= -20
C780: 1 x26 + -1 x30 <= -20
C781: 1 x26 + -1 x9 <= -20
C782: 1 x26 + -1 x8 <= -20
C783: 1 x26 + -1 x34 <= -20
C784: 1 x26 + -1 x55 <= -20
C785: 1 x26 + -1 x60 <= -20
C786: 1 x26 + -1 x5 <= -20
C787: 1 x26 + -1 x3 <= -20
C788: 1 x26 + -1 x0 <= -20
C789: 1 x26 + -1 x21 <= -20
C790: 1 x26 + -1 x10 <= -20
C791: 1 x26 + -1 x12 <= -20
C792: 1 x26 + -1 x19 <= -20
C793: 1 x26 + -1 x16 <= -20
C794: 1 x26 + -1 x23 <= -20
C795: 1 x26 + -1 x7 <= -20
C796: 1 x37 + -1 x28 <= -45
C797: 1 x37 + -1 x9 <= -45
C798: 1 x37 + -1 x8 <= -45
C799: 1 x37 + -1 x34 <= -45
C800: 1 x37 + -1 x60 <= -45
C801: 1 x37 + -1 x5 <= -45
C802: 1 x37 + -1 x3 <= -45
C803: 1 x37 + -1 x0 <= -45
C804: 1 x37 + -1 x10 <= -45
C805: 1 x37 + -1 x12 <= -45
C806: 1 x37 + -1 x19 <= -45
C807: 1 x37 + -1 x16 <= -45
C808: 1 x37 + -1 x23 <= -45
C809: 1 x37 + -1 x7 <= -45
C810: 1 x46 + -1 x61 <= -32
C811: 1 x46 + -1 x30 <= -32
C812: 1 x46 + -1 x9 <= -32
C813: 1 x46 + -1 x14 <= -32
C814: 1 x46 + -1 x8 <= -32
C815: 1 x46 + -1 x55 <= -32
C816: 1 x46 + -1 x60 <= -32
C817: 1 x46 + -1 x5 <= -32
C818: 1 x46 + -1 x3 <= -32
C819: 1 x46 + -1 x0 <= -32
C820: 1 x46 + -1 x21 <= -32
C821: 1 x46 + -1 x10 <= -32
C822: 1 x46 + -1 x12 <= -32
C823: 1 x46 + -1 x19 <= -32
C824: 1 x46 + -1 x16 <= -32
C825: 1 x46 + -1 x23 <= -32
C826: 1 x46 + -1 x7 <= -32
C827: 1 x42 + -1 x38 <= -71
C828: 1 x42 + -1 x32 <= -71
C829: 1 x42 + -1 x11 <= -71
C830: 1 x52 + -1 x6 <= -32
C831: 1 x52 + -1 x34 <= -32
C832: 1 x52 + -1 x0 <= -32
C833: 1 x52 + -1 x15 <= -32
C834: 1 x52 + -1 x24 <= -32
C835: 1 x53 + -1 x61 <= -32
C836: 1 x53 + -1 x9 <= -32
C837: 1 x53 + -1 x8 <= -32
C838: 1 x53 + -1 x60 <= -32
C839: 1 x53 + -1 x5 <= -32
C840: 1 x53 + -1 x3 <= -32
C841: 1 x53 + -1 x0 <= -32
C842: 1 x53 + -1 x21 <= -32
C843: 1 x53 + -1 x10 <= -32
C844: 1 x53 + -1 x12 <= -32
C845: 1 x53 + -1 x19 <= -32
C846: 1 x53 + -1 x16 <= -32
C847: 1 x53 + -1 x23 <= -32
C848: 1 x53 + -1 x7 <= -32
C849: 1 x59 + -1 x30 <= -32
C850: 1 x59 + -1 x14 <= -32
C851: 1 x59 + -1 x8 <= -32
C852: 1 x59 + -1 x55 <= -32
C853: 1 x59 + -1 x5 <= -32
C854: 1 x59 + -1 x3 <= -32
C855: 1 x59 + -1 x21 <= -32
C856: 1 x59 + -1 x10 <= -32
C857: 1 x59 + -1 x12 <= -32
C858: 1 x59 + -1 x19 <= -32
C859: 1 x43 + -1 x55 <= -71
C860: 1 x43 + -1 x21 <= -71
C861: 1 x13 + -1 x38 <= -20
C862: 1 x13 + -1 x33 <= -20
C863: 1 x13 + -1 x11 <= -20
C864: 1 x56 + -1 x34 <= -32
C865: 1 x56 + -1 x60 <= -32
C866: 1 x56 + -1 x3 <= -32
C867: 1 x56 + -1 x0 <= -32
C868: 1 x56 + -1 x23 <= -32
C869: 1 x56 + -1 x7 <= -32
C870: 1 x61 + -1 x8 <= -32
C871: 1 x61 + -1 x60 <= -32
C872: 1 x61 + -1 x5 <= -32
C873: 1 x61 + -1 x3 <= -32
C874: 1 x61 + -1 x10 <= -32
C875: 1 x61 + -1 x12 <= -32
C876: 1 x61 + -1 x19 <= -32
C877: 1 x61 + -1 x16 <= -32
C878: 1 x28 + -1 x60 <= -45
C879: 1 x28 + -1 x3 <= -45
C880: 1 x28 + -1 x23 <= -45
C881: 1 x28 + -1 x7 <= -45
C882: 1 x30 + -1 x5 <= -45
C883: 1 x30 + -1 x21 <= -45
C884: 1 x30 + -1 x10 <= -45
C885: 1 x30 + -1 x12 <= -45
C886: 1 x30 + -1 x19 <= -45
C887: 1 x9 + -1 x60 <= -20
C888: 1 x9 + -1 x3 <= -20
C889: 1 x9 + -1 x19 <= -20
C890: 1 x9 + -1 x16 <= -20
C891: 1 x9 + -1 x23 <= -20
C892: 1 x9 + -1 x7 <= -20
C893: 1 x14 + -1 x55 <= -20
C894: 1 x14 + -1 x21 <= -20
C895: 1 x14 + -1 x10 <= -20
C896: 1 x14 + -1 x12 <= -20
C897: 1 x6 + -1 x15 <= -20
C898: 1 x6 + -1 x24 <= -20
C899: 1 x8 + -1 x3 <= -20
C900: 1 x8 + -1 x19 <= -20
C901: -1 x3 + 1 x16 <= -20
C902: -1 x19 + 1 x16 <= -20
C903: -1 x1 + 1 l1 <= 0
C904: -1 x1 + 1 u1 >= 0
C905: -1 x49 + 1 l49 <= 0
C906: -1 x49 + 1 u49 >= 0
C907: -1 x48 + 1 l48 <= 0
C908: -1 x48 + 1 u48 >= 0
C909: -1 x22 + 1 l22 <= 0
C910: -1 x22 + 1 u22 >= 0
C911: -1 x20 + 1 l20 <= 0
C912: -1 x20 + 1 u20 >= 0
C913: -1 x17 + 1 l17 <= 0
C914: -1 x17 + 1 u17 >= 0
C915: -1 x18 + 1 l18 <= 0
C916: -1 x18 + 1 u18 >= 0
C917: -1 x2 + 1 l2 <= 0
C918: -1 x2 + 1 u2 >= 0
C919: -1 x54 + 1 l54 <= 0
C920: -1 x54 + 1 u54 >= 0
C921: -1 x62 + 1 l62 <= 0
C922: -1 x62 + 1 u62 >= 0
C923: -1 x40 + 1 l40 <= 0
C924: -1 x40 + 1 u40 >= 0
C925: -1 x41 + 1 l41 <= 0
C926: -1 x41 + 1 u41 >= 0
C927: -1 x47 + 1 l47 <= 0
C928: -1 x47 + 1 u47 >= 0
C929: -1 x50 + 1 l50 <= 0
C930: -1 x50 + 1 u50 >= 0
C931: -1 x4 + 1 l4 <= 0
C932: -1 x4 + 1 u4 >= 0
C933: -1 x31 + 1 l31 <= 0
C934: -1 x31 + 1 u31 >= 0
C935: -1 x58 + 1 l58 <= 0
C936: -1 x58 + 1 u58 >= 0
C937: -1 x27 + 1 l27 <= 0
C938: -1 x27 + 1 u27 >= 0
C939: -1 x39 + 1 l39 <= 0
C940: -1 x39 + 1 u39 >= 0
C941: -1 x25 + 1 l25 <= 0
C942: -1 x25 + 1 u25 >= 0
C943: -1 x36 + 1 l36 <= 0
C944: -1 x36 + 1 u36 >= 0
C945: -1 x45 + 1 l45 <= 0
C946: -1 x45 + 1 u45 >= 0
C947: -1 x51 + 1 l51 <= 0
C948: -1 x51 + 1 u51 >= 0
C949: -1 x35 + 1 l35 <= 0
C950: -1 x35 + 1 u35 >= 0
C951: -1 x44 + 1 l44 <= 0
C952: -1 x44 + 1 u44 >= 0
C953: -1 x57 + 1 l57 <= 0
C954: -1 x57 + 1 u57 >= 0
C955: -1 x29 + 1 l29 <= 0
C956: -1 x29 + 1 u29 >= 0
C957: -1 x26 + 1 l26 <= 0
C958: -1 x26 + 1 u26 >= 0
C959: -1 x37 + 1 l37 <= 0
C960: -1 x37 + 1 u37 >= 0
C961: -1 x46 + 1 l46 <= 0
C962: -1 x46 + 1 u46 >= 0
C963: -1 x42 + 1 l42 <= 0
C964: -1 x42 + 1 u42 >= 0
C965: -1 x52 + 1 l52 <= 0
C966: -1 x52 + 1 u52 >= 0
C967: -1 x53 + 1 l53 <= 0
C968: -1 x53 + 1 u53 >= 0
C969: -1 x59 + 1 l59 <= 0
C970: -1 x59 + 1 u59 >= 0
C971: -1 x43 + 1 l43 <= 0
C972: -1 x43 + 1 u43 >= 0
C973: -1 x13 + 1 l13 <= 0
C974: -1 x13 + 1 u13 >= 0
C975: -1 x56 + 1 l56 <= 0
C976: -1 x56 + 1 u56 >= 0
C977: -1 x61 + 1 l61 <= 0
C978: -1 x61 + 1 u61 >= 0
C979: -1 x28 + 1 l28 <= 0
C980: -1 x28 + 1 u28 >= 0
C981: -1 x30 + 1 l30 <= 0
C982: -1 x30 + 1 u30 >= 0
C983: -1 x9 + 1 l9 <= 0
C984: -1 x9 + 1 u9 >= 0
C985: -1 x14 + 1 l14 <= 0
C986: -1 x14 + 1 u14 >= 0
C987: -1 x6 + 1 l6 <= 0
C988: -1 x6 + 1 u6 >= 0
C989: -1 x38 + 1 l38 <= 0
C990: -1 x38 + 1 u38 >= 0
C991: -1 x32 + 1 l32 <= 0
C992: -1 x32 + 1 u32 >= 0
C993: -1 x8 + 1 l8 <= 0
C994: -1 x8 + 1 u8 >= 0
C995: -1 x33 + 1 l33 <= 0
C996: -1 x33 + 1 u33 >= 0
C997: -1 x34 + 1 l34 <= 0
C998: -1 x34 + 1 u34 >= 0
C999: -1 x55 + 1 l55 <= 0
C1000: -1 x55 + 1 u55 >= 0
C1001: -1 x60 + 1 l60 <= 0
C1002: -1 x60 + 1 u60 >= 0
C1003: -1 x5 + 1 l5 <= 0
C1004: -1 x5 + 1 u5 >= 0
C1005: -1 x3 + 1 l3 <= 0
C1006: -1 x3 + 1 u3 >= 0
C1007: -1 x0 + 1 l0 <= 0
C1008: -1 x0 + 1 u0 >= 0
C1009: -1 x11 + 1 l11 <= 0
C1010: -1 x11 + 1 u11 >= 0
C1011: -1 x21 + 1 l21 <= 0
C1012: -1 x21 + 1 u21 >= 0
C1013: -1 x10 + 1 l10 <= 0
C1014: -1 x10 + 1 u10 >= 0
C1015: -1 x12 + 1 l12 <= 0
C1016: -1 x12 + 1 u12 >= 0
C1017: -1 x19 + 1 l19 <= 0
C1018: -1 x19 + 1 u19 >= 0
C1019: -1 x16 + 1 l16 <= 0
C1020: -1 x16 + 1 u16 >= 0
C1021: -1 x23 + 1 l23 <= 0
C1022: -1 x23 + 1 u23 >= 0
C1023: -1 x7 + 1 l7 <= 0
C1024: -1 x7 + 1 u7 >= 0
C1025: -1 x15 + 1 l15 <= 0
C1026: -1 x15 + 1 u15 >= 0
C1027: -1 x24 + 1 l24 <= 0
C1028: -1 x24 + 1 u24 >= 0
Bounds
0 <= x1 <= 230
0 <= x49 <= 220
0 <= x48 <= 220
0 <= x22 <= 232
0 <= x20 <= 232
0 <= x17 <= 232
0 <= x18 <= 232
0 <= x2 <= 230
0 <= x54 <= 220
0 <= x62 <= 220
0 <= x40 <= 162
0 <= x41 <= 162
0 <= x47 <= 220
0 <= x50 <= 220
0 <= x4 <= 230
0 <= x31 <= 207
0 <= x58 <= 220
0 <= x27 <= 207
0 <= x39 <= 162
0 <= x25 <= 232
0 <= x36 <= 207
0 <= x45 <= 220
0 <= x51 <= 220
0 <= x35 <= 207
0 <= x44 <= 181
0 <= x57 <= 220
0 <= x29 <= 207
0 <= x26 <= 232
0 <= x37 <= 207
0 <= x46 <= 220
0 <= x42 <= 181
0 <= x52 <= 220
0 <= x53 <= 220
0 <= x59 <= 220
0 <= x43 <= 181
0 <= x13 <= 232
0 <= x56 <= 220
0 <= x61 <= 220
0 <= x28 <= 207
0 <= x30 <= 207
0 <= x9 <= 232
0 <= x14 <= 232
0 <= x6 <= 232
0 <= x38 <= 207
0 <= x32 <= 207
0 <= x8 <= 232
0 <= x33 <= 207
0 <= x34 <= 207
0 <= x55 <= 220
0 <= x60 <= 220
0 <= x5 <= 230
0 <= x3 <= 230
0 <= x0 <= 230
0 <= x11 <= 232
0 <= x21 <= 232
0 <= x10 <= 232
0 <= x12 <= 232
0 <= x19 <= 232
0 <= x16 <= 232
0 <= x23 <= 232
0 <= x7 <= 232
0 <= x15 <= 232
0 <= x24 <= 232
0 <= l1 <= 5
0 <= l49 <= 5
0 <= l48 <= 6
0 <= l22 <= 5
0 <= l20 <= 5
0 <= l17 <= 5
0 <= l18 <= 5
0 <= l2 <= 5
0 <= l54 <= 5
0 <= l62 <= 6
0 <= l40 <= 13
0 <= l41 <= 16
0 <= l47 <= 35
0 <= l50 <= 28
0 <= l4 <= 38
0 <= l31 <= 32
0 <= l58 <= 37
0 <= l27 <= 44
0 <= l39 <= 66
0 <= l25 <= 67
0 <= l36 <= 74
0 <= l45 <= 75
0 <= l51 <= 93
0 <= l35 <= 86
0 <= l44 <= 113
0 <= l57 <= 117
0 <= l29 <= 123
0 <= l26 <= 103
0 <= l37 <= 118
0 <= l46 <= 123
0 <= l42 <= 126
0 <= l52 <= 140
0 <= l53 <= 118
0 <= l59 <= 159
0 <= l43 <= 157
0 <= l13 <= 163
0 <= l56 <= 163
0 <= l61 <= 158
0 <= l28 <= 164
0 <= l30 <= 180
0 <= l9 <= 182
0 <= l14 <= 191
0 <= l6 <= 201
0 <= l38 <= 203
0 <= l32 <= 205
0 <= l8 <= 193
0 <= l33 <= 212
0 <= l34 <= 212
0 <= l55 <= 224
0 <= l60 <= 225
0 <= l5 <= 224
0 <= l3 <= 235
0 <= l0 <= 235
0 <= l11 <= 237
0 <= l21 <= 236
0 <= l10 <= 237
0 <= l12 <= 237
0 <= l19 <= 237
0 <= l16 <= 237
0 <= l23 <= 237
0 <= l7 <= 237
0 <= l15 <= 237
0 <= l24 <= 237
5 <= u1 <= 252
5 <= u49 <= 252
6 <= u48 <= 252
5 <= u22 <= 252
5 <= u20 <= 252
5 <= u17 <= 252
5 <= u18 <= 252
5 <= u2 <= 252
5 <= u54 <= 252
6 <= u62 <= 252
13 <= u40 <= 252
16 <= u41 <= 252
35 <= u47 <= 252
28 <= u50 <= 252
38 <= u4 <= 252
32 <= u31 <= 252
37 <= u58 <= 252
44 <= u27 <= 252
66 <= u39 <= 252
67 <= u25 <= 252
74 <= u36 <= 252
75 <= u45 <= 252
93 <= u51 <= 252
86 <= u35 <= 252
113 <= u44 <= 252
117 <= u57 <= 252
123 <= u29 <= 252
103 <= u26 <= 252
118 <= u37 <= 252
123 <= u46 <= 252
126 <= u42 <= 252
140 <= u52 <= 252
118 <= u53 <= 252
159 <= u59 <= 252
157 <= u43 <= 252
163 <= u13 <= 252
163 <= u56 <= 252
158 <= u61 <= 252
164 <= u28 <= 252
180 <= u30 <= 252
182 <= u9 <= 252
191 <= u14 <= 252
201 <= u6 <= 252
203 <= u38 <= 252
205 <= u32 <= 252
193 <= u8 <= 252
212 <= u33 <= 252
212 <= u34 <= 252
224 <= u55 <= 252
225 <= u60 <= 252
224 <= u5 <= 252
235 <= u3 <= 252
235 <= u0 <= 252
237 <= u11 <= 252
236 <= u21 <= 252
237 <= u10 <= 252
237 <= u12 <= 252
237 <= u19 <= 252
237 <= u16 <= 252
237 <= u23 <= 252
237 <= u7 <= 252
237 <= u15 <= 252
237 <= u24 <= 252
Generals
End
