Minimize
-1 l1 + -1 l49 + -1 l48 + -1 l22
 + -1 l20 + -1 l17 + -1 l18 + -1 l2
 + -1 l54 + -1 l62 + -1 l40 + -1 l41
 + -1 l47 + -1 l50 + -1 l4 + -1 l31
 + -1 l58 + -1 l27 + -1 l39 + -1 l25
 + -1 l36 + -1 l45 + -1 l51 + -1 l35
 + -1 l44 + -1 l57 + -1 l29 + -1 l26
 + -1 l37 + -1 l46 + -1 l42 + -1 l52
 + -1 l53 + -1 l59 + -1 l43 + -1 l13
 + -1 l56 + -1 l61 + -1 l28 + -1 l30
 + -1 l9 + -1 l14 + -1 l6 + -1 l38
 + -1 l32 + -1 l8 + -1 l33 + -1 l34
 + -1 l55 + -1 l60 + -1 l5 + -1 l3
 + -1 l0 + -1 l11 + -1 l21 + -1 l10
 + -1 l12 + -1 l19 + -1 l16 + -1 l23
 + -1 l7 + -1 l15 + -1 l24 + 1 u1
 + 1 u49 + 1 u48 + 1 u22 + 1 u20
 + 1 u17 + 1 u18 + 1 u2 + 1 u54
 + 1 u62 + 1 u40 + 1 u41 + 1 u47
 + 1 u50 + 1 u4 + 1 u31 + 1 u58
 + 1 u27 + 1 u39 + 1 u25 + 1 u36
 + 1 u45 + 1 u51 + 1 u35 + 1 u44
 + 1 u57 + 1 u29 + 1 u26 + 1 u37
 + 1 u46 + 1 u42 + 1 u52 + 1 u53
 + 1 u59 + 1 u43 + 1 u13 + 1 u56
 + 1 u61 + 1 u28 + 1 u30 + 1 u9
 + 1 u14 + 1 u6 + 1 u38 + 1 u32
 + 1 u8 + 1 u33 + 1 u34 + 1 u55
 + 1 u60 + 1 u5 + 1 u3 + 1 u0
 + 1 u11 + 1 u21 + 1 u10 + 1 u12
 + 1 u19 + 1 u16 + 1 u23 + 1 u7
 + 1 u15 + 1 u24

Subject To
C0: 1 x1 + -1 x49 <= -14
C1: 1 x1 + -1 x48 <= -14
C2: -1 x1 + 1 x22 <= -13
C3: -1 x1 + 1 x20 <= -13
C4: -1 x1 + 1 x17 <= -13
C5: 1 x1 + -1 x18 <= -14
C6: -1 x1 + 1 x2 <= -14
C7: 1 x1 + -1 x54 <= -14
C8: 1 x1 + -1 x62 <= -14
C9: -1 x1 + 1 x40 <= -84
C10: 1 x1 + -1 x41 <= -14
C11: -1 x1 + 1 x47 <= -22
C12: 1 x1 + -1 x31 <= -14
C13: 1 x1 + -1 x58 <= -14
C14: 1 x1 + -1 x36 <= -14
C15: 1 x1 + -1 x35 <= -14
C16: 1 x1 + -1 x44 <= -14
C17: -1 x1 + 1 x42 <= -59
C18: 1 x1 + -1 x52 <= -14
C19: 1 x49 + -1 x48 <= -22
C20: -1 x49 + 1 x22 <= -13
C21: -1 x49 + 1 x20 <= -13
C22: -1 x49 + 1 x17 <= -13
C23: -1 x49 + 1 x18 <= -13
C24: -1 x49 + 1 x2 <= -14
C25: -1 x49 + 1 x54 <= -22
C26: -1 x49 + 1 x62 <= -22
C27: -1 x49 + 1 x40 <= -84
C28: 1 x49 + -1 x41 <= -22
C29: -1 x49 + 1 x47 <= -22
C30: -1 x49 + 1 x50 <= -22
C31: -1 x49 + 1 x4 <= -14
C32: -1 x49 + 1 x27 <= -26
C33: -1 x49 + 1 x39 <= -84
C34: -1 x49 + 1 x57 <= -22
C35: -1 x49 + 1 x29 <= -26
C36: -1 x49 + 1 x42 <= -59
C37: -1 x49 + 1 x13 <= -13
C38: -1 x49 + 1 x38 <= -26
C39: -1 x49 + 1 x32 <= -26
C40: -1 x48 + 1 x22 <= -13
C41: -1 x48 + 1 x20 <= -13
C42: -1 x48 + 1 x17 <= -13
C43: -1 x48 + 1 x18 <= -13
C44: -1 x48 + 1 x2 <= -14
C45: -1 x48 + 1 x54 <= -22
C46: -1 x48 + 1 x62 <= -22
C47: -1 x48 + 1 x40 <= -84
C48: 1 x48 + -1 x41 <= -22
C49: -1 x48 + 1 x47 <= -22
C50: -1 x48 + 1 x50 <= -22
C51: -1 x48 + 1 x4 <= -14
C52: -1 x48 + 1 x58 <= -22
C53: -1 x48 + 1 x27 <= -26
C54: -1 x48 + 1 x39 <= -84
C55: -1 x48 + 1 x57 <= -22
C56: -1 x48 + 1 x29 <= -26
C57: -1 x48 + 1 x42 <= -59
C58: -1 x48 + 1 x13 <= -13
C59: -1 x48 + 1 x38 <= -26
C60: -1 x48 + 1 x32 <= -26
C61: 1 x22 + -1 x20 <= -13
C62: 1 x22 + -1 x17 <= -13
C63: 1 x22 + -1 x18 <= -13
C64: 1 x22 + -1 x2 <= -13
C65: 1 x22 + -1 x54 <= -13
C66: 1 x22 + -1 x62 <= -13
C67: -1 x22 + 1 x40 <= -84
C68: 1 x22 + -1 x41 <= -13
C69: 1 x22 + -1 x50 <= -13
C70: 1 x22 + -1 x4 <= -13
C71: 1 x22 + -1 x31 <= -13
C72: 1 x22 + -1 x58 <= -13
C73: 1 x22 + -1 x27 <= -13
C74: 1 x22 + -1 x25 <= -13
C75: 1 x22 + -1 x36 <= -13
C76: 1 x22 + -1 x45 <= -13
C77: 1 x22 + -1 x51 <= -13
C78: 1 x22 + -1 x35 <= -13
C79: 1 x22 + -1 x44 <= -13
C80: 1 x22 + -1 x26 <= -13
C81: 1 x22 + -1 x37 <= -13
C82: 1 x22 + -1 x52 <= -13
C83: 1 x22 + -1 x56 <= -13
C84: 1 x22 + -1 x6 <= -13
C85: 1 x22 + -1 x34 <= -13
C86: 1 x22 + -1 x15 <= -13
C87: 1 x22 + -1 x24 <= -13
C88: 1 x20 + -1 x17 <= -13
C89: 1 x20 + -1 x18 <= -13
C90: 1 x20 + -1 x2 <= -13
C91: 1 x20 + -1 x54 <= -13
C92: 1 x20 + -1 x62 <= -13
C93: -1 x20 + 1 x40 <= -84
C94: 1 x20 + -1 x41 <= -13
C95: 1 x20 + -1 x50 <= -13
C96: 1 x20 + -1 x4 <= -13
C97: 1 x20 + -1 x31 <= -13
C98: 1 x20 + -1 x58 <= -13
C99: 1 x20 + -1 x27 <= -13
C100: 1 x20 + -1 x25 <= -13
C101: 1 x20 + -1 x36 <= -13
C102: 1 x20 + -1 x45 <= -13
C103: 1 x20 + -1 x35 <= -13
C104: 1 x20 + -1 x44 <= -13
C105: 1 x20 + -1 x26 <= -13
C106: 1 x20 + -1 x37 <= -13
C107: 1 x20 + -1 x52 <= -13
C108: 1 x20 + -1 x56 <= -13
C109: 1 x20 + -1 x6 <= -13
C110: 1 x20 + -1 x34 <= -13
C111: 1 x20 + -1 x15 <= -13
C112: 1 x20 + -1 x24 <= -13
C113: 1 x17 + -1 x18 <= -13
C114: -1 x17 + 1 x2 <= -14
C115: 1 x17 + -1 x54 <= -13
C116: 1 x17 + -1 x62 <= -13
C117: -1 x17 + 1 x40 <= -84
C118: 1 x17 + -1 x41 <= -13
C119: -1 x17 + 1 x47 <= -22
C120: 1 x17 + -1 x50 <= -13
C121: 1 x17 + -1 x31 <= -13
C122: 1 x17 + -1 x58 <= -13
C123: 1 x17 + -1 x27 <= -13
C124: 1 x17 + -1 x25 <= -13
C125: 1 x17 + -1 x36 <= -13
C126: 1 x17 + -1 x35 <= -13
C127: 1 x17 + -1 x44 <= -13
C128: 1 x17 + -1 x52 <= -13
C129: 1 x17 + -1 x6 <= -13
C130: -1 x18 + 1 x2 <= -14
C131: 1 x18 + -1 x54 <= -13
C132: 1 x18 + -1 x62 <= -13
C133: -1 x18 + 1 x40 <= -84
C134: 1 x18 + -1 x41 <= -13
C135: -1 x18 + 1 x47 <= -22
C136: -1 x18 + 1 x4 <= -14
C137: 1 x18 + -1 x31 <= -13
C138: 1 x18 + -1 x58 <= -13
C139: 1 x18 + -1 x36 <= -13
C140: 1 x18 + -1 x35 <= -13
C141: 1 x18 + -1 x44 <= -13
C142: -1 x18 + 1 x57 <= -22
C143: -1 x18 + 1 x42 <= -59
C144: 1 x18 + -1 x52 <= -13
C145: 1 x2 + -1 x54 <= -14
C146: 1 x2 + -1 x62 <= -14
C147: -1 x2 + 1 x40 <= -84
C148: 1 x2 + -1 x41 <= -14
C149: -1 x2 + 1 x47 <= -22
C150: 1 x2 + -1 x50 <= -14
C151: 1 x2 + -1 x4 <= -14
C152: 1 x2 + -1 x31 <= -14
C153: 1 x2 + -1 x58 <= -14
C154: 1 x2 + -1 x27 <= -14
C155: 1 x2 + -1 x25 <= -14
C156: 1 x2 + -1 x36 <= -14
C157: 1 x2 + -1 x45 <= -14
C158: 1 x2 + -1 x35 <= -14
C159: 1 x2 + -1 x44 <= -14
C160: 1 x2 + -1 x26 <= -14
C161: 1 x2 + -1 x37 <= -14
C162: 1 x2 + -1 x52 <= -14
C163: 1 x2 + -1 x56 <= -14
C164: 1 x2 + -1 x6 <= -14
C165: 1 x2 + -1 x15 <= -14
C166: 1 x2 + -1 x24 <= -14
C167: 1 x54 + -1 x62 <= -22
C168: -1 x54 + 1 x40 <= -84
C169: 1 x54 + -1 x41 <= -22
C170: -1 x54 + 1 x47 <= -22
C171: -1 x54 + 1 x50 <= -22
C172: -1 x54 + 1 x4 <= -14
C173: 1 x54 + -1 x31 <= -22
C174: 1 x54 + -1 x58 <= -22
C175: 1 x54 + -1 x44 <= -22
C176: -1 x54 + 1 x57 <= -22
C177: -1 x54 + 1 x29 <= -26
C178: -1 x54 + 1 x42 <= -59
C179: 1 x54 + -1 x52 <= -22
C180: -1 x62 + 1 x40 <= -84
C181: 1 x62 + -1 x41 <= -22
C182: -1 x62 + 1 x47 <= -22
C183: -1 x62 + 1 x50 <= -22
C184: -1 x62 + 1 x4 <= -14
C185: 1 x62 + -1 x31 <= -22
C186: -1 x62 + 1 x39 <= -84
C187: -1 x62 + 1 x57 <= -22
C188: -1 x62 + 1 x29 <= -26
C189: -1 x62 + 1 x42 <= -59
C190: 1 x62 + -1 x52 <= -22
C191: -1 x62 + 1 x32 <= -26
C192: 1 x40 + -1 x41 <= -84
C193: 1 x40 + -1 x47 <= -84
C194: 1 x40 + -1 x50 <= -84
C195: 1 x40 + -1 x4 <= -84
C196: 1 x40 + -1 x31 <= -84
C197: 1 x40 + -1 x58 <= -84
C198: 1 x40 + -1 x27 <= -84
C199: 1 x40 + -1 x39 <= -84
C200: 1 x40 + -1 x25 <= -84
C201: 1 x40 + -1 x36 <= -84
C202: 1 x40 + -1 x45 <= -84
C203: 1 x40 + -1 x51 <= -84
C204: 1 x40 + -1 x35 <= -84
C205: 1 x40 + -1 x44 <= -84
C206: 1 x40 + -1 x26 <= -84
C207: 1 x40 + -1 x37 <= -84
C208: 1 x40 + -1 x46 <= -84
C209: 1 x40 + -1 x52 <= -84
C210: 1 x40 + -1 x53 <= -84
C211: 1 x40 + -1 x59 <= -84
C212: 1 x40 + -1 x56 <= -84
C213: 1 x40 + -1 x61 <= -84
C214: 1 x40 + -1 x28 <= -84
C215: 1 x40 + -1 x30 <= -84
C216: 1 x40 + -1 x9 <= -84
C217: 1 x40 + -1 x6 <= -84
C218: 1 x40 + -1 x8 <= -84
C219: 1 x40 + -1 x34 <= -84
C220: 1 x40 + -1 x60 <= -84
C221: 1 x40 + -1 x3 <= -84
C222: 1 x40 + -1 x0 <= -84
C223: 1 x40 + -1 x16 <= -84
C224: 1 x40 + -1 x23 <= -84
C225: 1 x40 + -1 x7 <= -84
C226: 1 x40 + -1 x15 <= -84
C227: 1 x40 + -1 x24 <= -84
C228: -1 x41 + 1 x47 <= -22
C229: -1 x41 + 1 x50 <= -22
C230: -1 x41 + 1 x4 <= -14
C231: -1 x41 + 1 x31 <= -26
C232: -1 x41 + 1 x58 <= -22
C233: -1 x41 + 1 x27 <= -26
C234: -1 x41 + 1 x39 <= -84
C235: -1 x41 + 1 x25 <= -13
C236: -1 x41 + 1 x36 <= -26
C237: -1 x41 + 1 x45 <= -22
C238: -1 x41 + 1 x51 <= -22
C239: -1 x41 + 1 x57 <= -22
C240: -1 x41 + 1 x29 <= -26
C241: -1 x41 + 1 x26 <= -13
C242: -1 x41 + 1 x46 <= -22
C243: -1 x41 + 1 x42 <= -59
C244: -1 x41 + 1 x59 <= -22
C245: -1 x41 + 1 x43 <= -59
C246: -1 x41 + 1 x13 <= -13
C247: -1 x41 + 1 x14 <= -13
C248: -1 x41 + 1 x38 <= -26
C249: -1 x41 + 1 x32 <= -26
C250: -1 x41 + 1 x33 <= -26
C251: -1 x41 + 1 x11 <= -13
C252: 1 x47 + -1 x50 <= -22
C253: 1 x47 + -1 x4 <= -22
C254: 1 x47 + -1 x31 <= -22
C255: 1 x47 + -1 x58 <= -22
C256: 1 x47 + -1 x27 <= -22
C257: 1 x47 + -1 x25 <= -22
C258: 1 x47 + -1 x36 <= -22
C259: 1 x47 + -1 x45 <= -22
C260: 1 x47 + -1 x51 <= -22
C261: 1 x47 + -1 x35 <= -22
C262: 1 x47 + -1 x44 <= -22
C263: 1 x47 + -1 x26 <= -22
C264: 1 x47 + -1 x37 <= -22
C265: 1 x47 + -1 x46 <= -22
C266: 1 x47 + -1 x52 <= -22
C267: 1 x47 + -1 x53 <= -22
C268: 1 x47 + -1 x56 <= -22
C269: 1 x47 + -1 x28 <= -22
C270: 1 x47 + -1 x6 <= -22
C271: 1 x47 + -1 x34 <= -22
C272: 1 x47 + -1 x15 <= -22
C273: 1 x47 + -1 x24 <= -22
C274: -1 x50 + 1 x4 <= -14
C275: 1 x50 + -1 x31 <= -22
C276: 1 x50 + -1 x58 <= -22
C277: 1 x50 + -1 x27 <= -22
C278: 1 x50 + -1 x25 <= -22
C279: 1 x50 + -1 x36 <= -22
C280: 1 x50 + -1 x35 <= -22
C281: 1 x50 + -1 x44 <= -22
C282: -1 x50 + 1 x57 <= -22
C283: -1 x50 + 1 x42 <= -59
C284: 1 x50 + -1 x52 <= -22
C285: 1 x50 + -1 x6 <= -22
C286: 1 x4 + -1 x31 <= -14
C287: 1 x4 + -1 x58 <= -14
C288: 1 x4 + -1 x27 <= -14
C289: 1 x4 + -1 x25 <= -14
C290: 1 x4 + -1 x36 <= -14
C291: 1 x4 + -1 x45 <= -14
C292: 1 x4 + -1 x35 <= -14
C293: 1 x4 + -1 x44 <= -14
C294: -1 x4 + 1 x57 <= -22
C295: 1 x4 + -1 x26 <= -14
C296: 1 x4 + -1 x37 <= -14
C297: -1 x4 + 1 x42 <= -59
C298: 1 x4 + -1 x52 <= -14
C299: 1 x4 + -1 x56 <= -14
C300: 1 x4 + -1 x6 <= -14
C301: 1 x4 + -1 x15 <= -14
C302: 1 x4 + -1 x24 <= -14
C303: -1 x31 + 1 x58 <= -22
C304: -1 x31 + 1 x27 <= -26
C305: -1 x31 + 1 x39 <= -84
C306: -1 x31 + 1 x25 <= -13
C307: -1 x31 + 1 x51 <= -22
C308: -1 x31 + 1 x57 <= -22
C309: -1 x31 + 1 x29 <= -26
C310: -1 x31 + 1 x42 <= -59
C311: 1 x31 + -1 x52 <= -26
C312: -1 x31 + 1 x43 <= -59
C313: -1 x31 + 1 x13 <= -13
C314: -1 x31 + 1 x38 <= -26
C315: -1 x31 + 1 x32 <= -26
C316: -1 x31 + 1 x33 <= -26
C317: -1 x31 + 1 x11 <= -13
C318: -1 x58 + 1 x27 <= -26
C319: -1 x58 + 1 x39 <= -84
C320: 1 x58 + -1 x36 <= -22
C321: 1 x58 + -1 x35 <= -22
C322: 1 x58 + -1 x44 <= -22
C323: -1 x58 + 1 x57 <= -22
C324: -1 x58 + 1 x29 <= -26
C325: -1 x58 + 1 x42 <= -59
C326: 1 x58 + -1 x52 <= -22
C327: -1 x58 + 1 x13 <= -13
C328: -1 x58 + 1 x38 <= -26
C329: -1 x58 + 1 x32 <= -26
C330: -1 x27 + 1 x39 <= -84
C331: 1 x27 + -1 x25 <= -26
C332: 1 x27 + -1 x36 <= -26
C333: 1 x27 + -1 x35 <= -26
C334: 1 x27 + -1 x44 <= -26
C335: -1 x27 + 1 x57 <= -22
C336: -1 x27 + 1 x29 <= -26
C337: 1 x27 + -1 x37 <= -26
C338: -1 x27 + 1 x42 <= -59
C339: 1 x27 + -1 x52 <= -26
C340: -1 x27 + 1 x13 <= -13
C341: 1 x27 + -1 x6 <= -26
C342: -1 x27 + 1 x38 <= -26
C343: -1 x27 + 1 x32 <= -26
C344: 1 x27 + -1 x24 <= -26
C345: 1 x39 + -1 x25 <= -84
C346: 1 x39 + -1 x36 <= -84
C347: 1 x39 + -1 x45 <= -84
C348: 1 x39 + -1 x51 <= -84
C349: 1 x39 + -1 x35 <= -84
C350: 1 x39 + -1 x44 <= -84
C351: -1 x39 + 1 x57 <= -22
C352: -1 x39 + 1 x29 <= -26
C353: 1 x39 + -1 x26 <= -84
C354: 1 x39 + -1 x37 <= -84
C355: 1 x39 + -1 x46 <= -84
C356: -1 x39 + 1 x42 <= -59
C357: 1 x39 + -1 x52 <= -84
C358: 1 x39 + -1 x53 <= -84
C359: 1 x39 + -1 x56 <= -84
C360: 1 x39 + -1 x28 <= -84
C361: 1 x39 + -1 x9 <= -84
C362: 1 x39 + -1 x6 <= -84
C363: -1 x39 + 1 x32 <= -26
C364: 1 x39 + -1 x34 <= -84
C365: 1 x39 + -1 x0 <= -84
C366: 1 x39 + -1 x7 <= -84
C367: 1 x39 + -1 x15 <= -84
C368: 1 x39 + -1 x24 <= -84
C369: 1 x25 + -1 x36 <= -13
C370: 1 x25 + -1 x35 <= -13
C371: 1 x25 + -1 x44 <= -13
C372: -1 x25 + 1 x57 <= -22
C373: -1 x25 + 1 x29 <= -26
C374: -1 x25 + 1 x42 <= -59
C375: 1 x25 + -1 x52 <= -13
C376: -1 x25 + 1 x13 <= -13
C377: 1 x25 + -1 x6 <= -13
C378: -1 x25 + 1 x38 <= -26
C379: -1 x25 + 1 x32 <= -26
C380: -1 x36 + 1 x45 <= -22
C381: -1 x36 + 1 x51 <= -22
C382: 1 x36 + -1 x35 <= -26
C383: 1 x36 + -1 x44 <= -26
C384: -1 x36 + 1 x57 <= -22
C385: -1 x36 + 1 x29 <= -26
C386: -1 x36 + 1 x46 <= -22
C387: -1 x36 + 1 x42 <= -59
C388: 1 x36 + -1 x52 <= -26
C389: -1 x36 + 1 x59 <= -22
C390: -1 x36 + 1 x43 <= -59
C391: -1 x36 + 1 x13 <= -13
C392: -1 x36 + 1 x14 <= -13
C393: -1 x36 + 1 x38 <= -26
C394: -1 x36 + 1 x32 <= -26
C395: -1 x36 + 1 x33 <= -26
C396: -1 x36 + 1 x11 <= -13
C397: -1 x45 + 1 x51 <= -22
C398: 1 x45 + -1 x35 <= -22
C399: 1 x45 + -1 x44 <= -22
C400: -1 x45 + 1 x57 <= -22
C401: -1 x45 + 1 x29 <= -26
C402: 1 x45 + -1 x37 <= -22
C403: -1 x45 + 1 x42 <= -59
C404: 1 x45 + -1 x52 <= -22
C405: -1 x45 + 1 x43 <= -59
C406: -1 x45 + 1 x13 <= -13
C407: 1 x45 + -1 x56 <= -22
C408: 1 x45 + -1 x6 <= -22
C409: -1 x45 + 1 x38 <= -26
C410: -1 x45 + 1 x32 <= -26
C411: -1 x45 + 1 x33 <= -26
C412: -1 x45 + 1 x11 <= -13
C413: 1 x45 + -1 x24 <= -22
C414: 1 x51 + -1 x35 <= -22
C415: 1 x51 + -1 x44 <= -22
C416: -1 x51 + 1 x57 <= -22
C417: -1 x51 + 1 x29 <= -26
C418: 1 x51 + -1 x26 <= -22
C419: 1 x51 + -1 x37 <= -22
C420: -1 x51 + 1 x42 <= -59
C421: 1 x51 + -1 x52 <= -22
C422: -1 x51 + 1 x43 <= -59
C423: -1 x51 + 1 x13 <= -13
C424: 1 x51 + -1 x56 <= -22
C425: 1 x51 + -1 x6 <= -22
C426: -1 x51 + 1 x38 <= -26
C427: -1 x51 + 1 x32 <= -26
C428: -1 x51 + 1 x33 <= -26
C429: 1 x51 + -1 x34 <= -22
C430: -1 x51 + 1 x11 <= -13
C431: 1 x51 + -1 x15 <= -22
C432: 1 x51 + -1 x24 <= -22
C433: 1 x35 + -1 x44 <= -26
C434: -1 x35 + 1 x57 <= -22
C435: -1 x35 + 1 x29 <= -26
C436: -1 x35 + 1 x26 <= -13
C437: -1 x35 + 1 x37 <= -26
C438: -1 x35 + 1 x46 <= -22
C439: -1 x35 + 1 x42 <= -59
C440: 1 x35 + -1 x52 <= -26
C441: -1 x35 + 1 x53 <= -22
C442: -1 x35 + 1 x59 <= -22
C443: -1 x35 + 1 x43 <= -59
C444: -1 x35 + 1 x13 <= -13
C445: -1 x35 + 1 x61 <= -22
C446: -1 x35 + 1 x30 <= -26
C447: -1 x35 + 1 x14 <= -13
C448: -1 x35 + 1 x38 <= -26
C449: -1 x35 + 1 x32 <= -26
C450: -1 x35 + 1 x33 <= -26
C451: -1 x35 + 1 x55 <= -22
C452: -1 x35 + 1 x11 <= -13
C453: -1 x35 + 1 x21 <= -13
C454: -1 x35 + 1 x10 <= -13
C455: -1 x44 + 1 x57 <= -22
C456: -1 x44 + 1 x29 <= -26
C457: -1 x44 + 1 x26 <= -13
C458: -1 x44 + 1 x37 <= -26
C459: -1 x44 + 1 x46 <= -22
C460: -1 x44 + 1 x42 <= -59
C461: 1 x44 + -1 x52 <= -59
C462: -1 x44 + 1 x53 <= -22
C463: -1 x44 + 1 x59 <= -22
C464: -1 x44 + 1 x43 <= -59
C465: -1 x44 + 1 x13 <= -13
C466: -1 x44 + 1 x56 <= -22
C467: -1 x44 + 1 x61 <= -22
C468: -1 x44 + 1 x28 <= -26
C469: -1 x44 + 1 x30 <= -26
C470: -1 x44 + 1 x9 <= -13
C471: -1 x44 + 1 x14 <= -13
C472: -1 x44 + 1 x38 <= -26
C473: -1 x44 + 1 x32 <= -26
C474: -1 x44 + 1 x8 <= -13
C475: -1 x44 + 1 x33 <= -26
C476: -1 x44 + 1 x55 <= -22
C477: -1 x44 + 1 x5 <= -14
C478: -1 x44 + 1 x3 <= -14
C479: -1 x44 + 1 x11 <= -13
C480: -1 x44 + 1 x21 <= -13
C481: -1 x44 + 1 x10 <= -13
C482: -1 x44 + 1 x12 <= -13
C483: -1 x44 + 1 x19 <= -13
C484: -1 x44 + 1 x16 <= -13
C485: 1 x57 + -1 x29 <= -22
C486: 1 x57 + -1 x26 <= -22
C487: 1 x57 + -1 x37 <= -22
C488: 1 x57 + -1 x46 <= -22
C489: -1 x57 + 1 x42 <= -59
C490: 1 x57 + -1 x52 <= -22
C491: 1 x57 + -1 x53 <= -22
C492: 1 x57 + -1 x59 <= -22
C493: 1 x57 + -1 x43 <= -22
C494: 1 x57 + -1 x56 <= -22
C495: 1 x57 + -1 x61 <= -22
C496: 1 x57 + -1 x28 <= -22
C497: 1 x57 + -1 x30 <= -22
C498: 1 x57 + -1 x9 <= -22
C499: 1 x57 + -1 x14 <= -22
C500: 1 x57 + -1 x6 <= -22
C501: 1 x57 + -1 x8 <= -22
C502: 1 x57 + -1 x34 <= -22
C503: 1 x57 + -1 x60 <= -22
C504: 1 x57 + -1 x5 <= -22
C505: 1 x57 + -1 x3 <= -22
C506: 1 x57 + -1 x0 <= -22
C507: 1 x57 + -1 x21 <= -22
C508: 1 x57 + -1 x10 <= -22
C509: 1 x57 + -1 x12 <= -22
C510: 1 x57 + -1 x19 <= -22
C511: 1 x57 + -1 x16 <= -22
C512: 1 x57 + -1 x23 <= -22
C513: 1 x57 + -1 x7 <= -22
C514: 1 x57 + -1 x15 <= -22
C515: 1 x57 + -1 x24 <= -22
C516: 1 x29 + -1 x26 <= -26
C517: 1 x29 + -1 x37 <= -26
C518: 1 x29 + -1 x46 <= -26
C519: -1 x29 + 1 x42 <= -59
C520: 1 x29 + -1 x52 <= -26
C521: 1 x29 + -1 x53 <= -26
C522: 1 x29 + -1 x59 <= -26
C523: 1 x29 + -1 x43 <= -26
C524: 1 x29 + -1 x56 <= -26
C525: 1 x29 + -1 x61 <= -26
C526: 1 x29 + -1 x28 <= -26
C527: 1 x29 + -1 x30 <= -26
C528: 1 x29 + -1 x9 <= -26
C529: 1 x29 + -1 x14 <= -26
C530: 1 x29 + -1 x6 <= -26
C531: -1 x29 + 1 x32 <= -26
C532: 1 x29 + -1 x8 <= -26
C533: 1 x29 + -1 x34 <= -26
C534: 1 x29 + -1 x60 <= -26
C535: 1 x29 + -1 x5 <= -26
C536: 1 x29 + -1 x3 <= -26
C537: 1 x29 + -1 x0 <= -26
C538: 1 x29 + -1 x10 <= -26
C539: 1 x29 + -1 x12 <= -26
C540: 1 x29 + -1 x19 <= -26
C541: 1 x29 + -1 x16 <= -26
C542: 1 x29 + -1 x23 <= -26
C543: 1 x29 + -1 x7 <= -26
C544: 1 x29 + -1 x15 <= -26
C545: 1 x29 + -1 x24 <= -26
C546: 1 x26 + -1 x37 <= -13
C547: -1 x26 + 1 x46 <= -22
C548: -1 x26 + 1 x42 <= -59
C549: 1 x26 + -1 x52 <= -13
C550: -1 x26 + 1 x59 <= -22
C551: -1 x26 + 1 x43 <= -59
C552: -1 x26 + 1 x13 <= -13
C553: 1 x26 + -1 x56 <= -13
C554: -1 x26 + 1 x14 <= -13
C555: 1 x26 + -1 x6 <= -13
C556: -1 x26 + 1 x38 <= -26
C557: -1 x26 + 1 x32 <= -26
C558: -1 x26 + 1 x33 <= -26
C559: -1 x26 + 1 x11 <= -13
C560: 1 x26 + -1 x15 <= -13
C561: 1 x26 + -1 x24 <= -13
C562: -1 x37 + 1 x46 <= -22
C563: -1 x37 + 1 x42 <= -59
C564: 1 x37 + -1 x52 <= -26
C565: -1 x37 + 1 x53 <= -22
C566: -1 x37 + 1 x59 <= -22
C567: -1 x37 + 1 x43 <= -59
C568: -1 x37 + 1 x13 <= -13
C569: 1 x37 + -1 x56 <= -26
C570: -1 x37 + 1 x61 <= -22
C571: -1 x37 + 1 x30 <= -26
C572: -1 x37 + 1 x14 <= -13
C573: 1 x37 + -1 x6 <= -26
C574: -1 x37 + 1 x38 <= -26
C575: -1 x37 + 1 x32 <= -26
C576: -1 x37 + 1 x33 <= -26
C577: -1 x37 + 1 x55 <= -22
C578: -1 x37 + 1 x11 <= -13
C579: -1 x37 + 1 x21 <= -13
C580: 1 x37 + -1 x15 <= -26
C581: 1 x37 + -1 x24 <= -26
C582: -1 x46 + 1 x42 <= -59
C583: 1 x46 + -1 x52 <= -22
C584: 1 x46 + -1 x53 <= -22
C585: -1 x46 + 1 x59 <= -22
C586: -1 x46 + 1 x43 <= -59
C587: -1 x46 + 1 x13 <= -13
C588: 1 x46 + -1 x56 <= -22
C589: 1 x46 + -1 x28 <= -22
C590: 1 x46 + -1 x6 <= -22
C591: -1 x46 + 1 x38 <= -26
C592: -1 x46 + 1 x32 <= -26
C593: -1 x46 + 1 x33 <= -26
C594: 1 x46 + -1 x34 <= -22
C595: -1 x46 + 1 x11 <= -13
C596: 1 x46 + -1 x15 <= -22
C597: 1 x46 + -1 x24 <= -22
C598: 1 x42 + -1 x52 <= -59
C599: 1 x42 + -1 x53 <= -59
C600: 1 x42 + -1 x59 <= -59
C601: 1 x42 + -1 x43 <= -59
C602: 1 x42 + -1 x13 <= -59
C603: 1 x42 + -1 x56 <= -59
C604: 1 x42 + -1 x61 <= -59
C605: 1 x42 + -1 x28 <= -59
C606: 1 x42 + -1 x30 <= -59
C607: 1 x42 + -1 x9 <= -59
C608: 1 x42 + -1 x14 <= -59
C609: 1 x42 + -1 x6 <= -59
C610: 1 x42 + -1 x8 <= -59
C611: 1 x42 + -1 x33 <= -59
C612: 1 x42 + -1 x34 <= -59
C613: 1 x42 + -1 x55 <= -59
C614: 1 x42 + -1 x60 <= -59
C615: 1 x42 + -1 x5 <= -59
C616: 1 x42 + -1 x3 <= -59
C617: 1 x42 + -1 x0 <= -59
C618: 1 x42 + -1 x21 <= -59
C619: 1 x42 + -1 x10 <= -59
C620: 1 x42 + -1 x12 <= -59
C621: 1 x42 + -1 x19 <= -59
C622: 1 x42 + -1 x16 <= -59
C623: 1 x42 + -1 x23 <= -59
C624: 1 x42 + -1 x7 <= -59
C625: 1 x42 + -1 x15 <= -59
C626: 1 x42 + -1 x24 <= -59
C627: -1 x52 + 1 x53 <= -22
C628: -1 x52 + 1 x59 <= -22
C629: -1 x52 + 1 x43 <= -59
C630: -1 x52 + 1 x13 <= -13
C631: -1 x52 + 1 x56 <= -22
C632: -1 x52 + 1 x61 <= -22
C633: -1 x52 + 1 x28 <= -26
C634: -1 x52 + 1 x30 <= -26
C635: -1 x52 + 1 x9 <= -13
C636: -1 x52 + 1 x14 <= -13
C637: -1 x52 + 1 x38 <= -26
C638: -1 x52 + 1 x32 <= -26
C639: -1 x52 + 1 x8 <= -13
C640: -1 x52 + 1 x33 <= -26
C641: -1 x52 + 1 x55 <= -22
C642: -1 x52 + 1 x60 <= -22
C643: -1 x52 + 1 x5 <= -14
C644: -1 x52 + 1 x3 <= -14
C645: -1 x52 + 1 x11 <= -13
C646: -1 x52 + 1 x21 <= -13
C647: -1 x52 + 1 x10 <= -13
C648: -1 x52 + 1 x12 <= -13
C649: -1 x52 + 1 x19 <= -13
C650: -1 x52 + 1 x16 <= -13
C651: -1 x52 + 1 x23 <= -13
C652: -1 x52 + 1 x7 <= -13
C653: -1 x53 + 1 x59 <= -22
C654: -1 x53 + 1 x43 <= -59
C655: -1 x53 + 1 x13 <= -13
C656: 1 x53 + -1 x56 <= -22
C657: 1 x53 + -1 x28 <= -22
C658: -1 x53 + 1 x30 <= -26
C659: -1 x53 + 1 x14 <= -13
C660: 1 x53 + -1 x6 <= -22
C661: -1 x53 + 1 x38 <= -26
C662: -1 x53 + 1 x32 <= -26
C663: -1 x53 + 1 x33 <= -26
C664: 1 x53 + -1 x34 <= -22
C665: -1 x53 + 1 x55 <= -22
C666: -1 x53 + 1 x11 <= -13
C667: 1 x53 + -1 x15 <= -22
C668: 1 x53 + -1 x24 <= -22
C669: -1 x59 + 1 x43 <= -59
C670: -1 x59 + 1 x13 <= -13
C671: 1 x59 + -1 x56 <= -22
C672: 1 x59 + -1 x61 <= -22
C673: 1 x59 + -1 x28 <= -22
C674: 1 x59 + -1 x9 <= -22
C675: 1 x59 + -1 x6 <= -22
C676: -1 x59 + 1 x38 <= -26
C677: -1 x59 + 1 x32 <= -26
C678: -1 x59 + 1 x33 <= -26
C679: 1 x59 + -1 x34 <= -22
C680: 1 x59 + -1 x60 <= -22
C681: 1 x59 + -1 x0 <= -22
C682: -1 x59 + 1 x11 <= -13
C683: 1 x59 + -1 x16 <= -22
C684: 1 x59 + -1 x23 <= -22
C685: 1 x59 + -1 x7 <= -22
C686: 1 x59 + -1 x15 <= -22
C687: 1 x59 + -1 x24 <= -22
C688: -1 x43 + 1 x13 <= -13
C689: 1 x43 + -1 x56 <= -59
C690: 1 x43 + -1 x61 <= -59
C691: 1 x43 + -1 x28 <= -59
C692: 1 x43 + -1 x30 <= -59
C693: 1 x43 + -1 x9 <= -59
C694: 1 x43 + -1 x14 <= -59
C695: 1 x43 + -1 x6 <= -59
C696: -1 x43 + 1 x38 <= -26
C697: -1 x43 + 1 x32 <= -26
C698: 1 x43 + -1 x8 <= -59
C699: -1 x43 + 1 x33 <= -26
C700: 1 x43 + -1 x34 <= -59
C701: 1 x43 + -1 x60 <= -59
C702: 1 x43 + -1 x5 <= -59
C703: 1 x43 + -1 x3 <= -59
C704: 1 x43 + -1 x0 <= -59
C705: -1 x43 + 1 x11 <= -13
C706: 1 x43 + -1 x10 <= -59
C707: 1 x43 + -1 x12 <= -59
C708: 1 x43 + -1 x19 <= -59
C709: 1 x43 + -1 x16 <= -59
C710: 1 x43 + -1 x23 <= -59
C711: 1 x43 + -1 x7 <= -59
C712: 1 x43 + -1 x15 <= -59
C713: 1 x43 + -1 x24 <= -59
C714: 1 x13 + -1 x56 <= -13
C715: 1 x13 + -1 x61 <= -13
C716: 1 x13 + -1 x28 <= -13
C717: 1 x13 + -1 x30 <= -13
C718: 1 x13 + -1 x9 <= -13
C719: 1 x13 + -1 x14 <= -13
C720: 1 x13 + -1 x6 <= -13
C721: -1 x13 + 1 x32 <= -26
C722: 1 x13 + -1 x8 <= -13
C723: 1 x13 + -1 x34 <= -13
C724: 1 x13 + -1 x55 <= -13
C725: 1 x13 + -1 x60 <= -13
C726: 1 x13 + -1 x5 <= -13
C727: 1 x13 + -1 x3 <= -13
C728: 1 x13 + -1 x0 <= -13
C729: 1 x13 + -1 x21 <= -13
C730: 1 x13 + -1 x10 <= -13
C731: 1 x13 + -1 x12 <= -13
C732: 1 x13 + -1 x19 <= -13
C733: 1 x13 + -1 x16 <= -13
C734: 1 x13 + -1 x23 <= -13
C735: 1 x13 + -1 x7 <= -13
C736: 1 x13 + -1 x15 <= -13
C737: 1 x13 + -1 x24 <= -13
C738: -1 x56 + 1 x61 <= -22
C739: -1 x56 + 1 x28 <= -26
C740: -1 x56 + 1 x30 <= -26
C741: -1 x56 + 1 x9 <= -13
C742: -1 x56 + 1 x14 <= -13
C743: 1 x56 + -1 x6 <= -22
C744: -1 x56 + 1 x38 <= -26
C745: -1 x56 + 1 x32 <= -26
C746: -1 x56 + 1 x8 <= -13
C747: -1 x56 + 1 x33 <= -26
C748: -1 x56 + 1 x55 <= -22
C749: -1 x56 + 1 x5 <= -14
C750: -1 x56 + 1 x11 <= -13
C751: -1 x56 + 1 x21 <= -13
C752: -1 x56 + 1 x10 <= -13
C753: -1 x56 + 1 x12 <= -13
C754: -1 x56 + 1 x19 <= -13
C755: -1 x56 + 1 x16 <= -13
C756: 1 x56 + -1 x15 <= -22
C757: 1 x56 + -1 x24 <= -22
C758: 1 x61 + -1 x28 <= -22
C759: -1 x61 + 1 x30 <= -26
C760: 1 x61 + -1 x9 <= -22
C761: -1 x61 + 1 x14 <= -13
C762: 1 x61 + -1 x6 <= -22
C763: -1 x61 + 1 x38 <= -26
C764: -1 x61 + 1 x32 <= -26
C765: -1 x61 + 1 x33 <= -26
C766: 1 x61 + -1 x34 <= -22
C767: -1 x61 + 1 x55 <= -22
C768: 1 x61 + -1 x0 <= -22
C769: -1 x61 + 1 x11 <= -13
C770: -1 x61 + 1 x21 <= -13
C771: 1 x61 + -1 x23 <= -22
C772: 1 x61 + -1 x7 <= -22
C773: 1 x61 + -1 x15 <= -22
C774: 1 x61 + -1 x24 <= -22
C775: -1 x28 + 1 x30 <= -26
C776: -1 x28 + 1 x9 <= -13
C777: -1 x28 + 1 x14 <= -13
C778: 1 x28 + -1 x6 <= -26
C779: -1 x28 + 1 x38 <= -26
C780: -1 x28 + 1 x32 <= -26
C781: -1 x28 + 1 x8 <= -13
C782: -1 x28 + 1 x33 <= -26
C783: 1 x28 + -1 x34 <= -26
C784: -1 x28 + 1 x55 <= -22
C785: -1 x28 + 1 x5 <= -14
C786: 1 x28 + -1 x0 <= -26
C787: -1 x28 + 1 x11 <= -13
C788: -1 x28 + 1 x21 <= -13
C789: -1 x28 + 1 x10 <= -13
C790: -1 x28 + 1 x12 <= -13
C791: -1 x28 + 1 x19 <= -13
C792: -1 x28 + 1 x16 <= -13
C793: 1 x28 + -1 x15 <= -26
C794: 1 x28 + -1 x24 <= -26
C795: 1 x30 + -1 x9 <= -26
C796: -1 x30 + 1 x14 <= -13
C797: 1 x30 + -1 x6 <= -26
C798: -1 x30 + 1 x38 <= -26
C799: -1 x30 + 1 x32 <= -26
C800: 1 x30 + -1 x8 <= -26
C801: -1 x30 + 1 x33 <= -26
C802: 1 x30 + -1 x34 <= -26
C803: -1 x30 + 1 x55 <= -22
C804: 1 x30 + -1 x60 <= -26
C805: 1 x30 + -1 x3 <= -26
C806: 1 x30 + -1 x0 <= -26
C807: -1 x30 + 1 x11 <= -13
C808: 1 x30 + -1 x16 <= -26
C809: 1 x30 + -1 x23 <= -26
C810: 1 x30 + -1 x7 <= -26
C811: 1 x30 + -1 x15 <= -26
C812: 1 x30 + -1 x24 <= -26
C813: -1 x9 + 1 x14 <= -13
C814: 1 x9 + -1 x6 <= -13
C815: -1 x9 + 1 x38 <= -26
C816: -1 x9 + 1 x32 <= -26
C817: -1 x9 + 1 x8 <= -13
C818: -1 x9 + 1 x33 <= -26
C819: 1 x9 + -1 x34 <= -13
C820: -1 x9 + 1 x55 <= -22
C821: -1 x9 + 1 x5 <= -14
C822: 1 x9 + -1 x0 <= -13
C823: -1 x9 + 1 x11 <= -13
C824: -1 x9 + 1 x21 <= -13
C825: -1 x9 + 1 x10 <= -13
C826: -1 x9 + 1 x12 <= -13
C827: 1 x9 + -1 x15 <= -13
C828: 1 x9 + -1 x24 <= -13
C829: 1 x14 + -1 x6 <= -13
C830: -1 x14 + 1 x38 <= -26
C831: -1 x14 + 1 x32 <= -26
C832: 1 x14 + -1 x8 <= -13
C833: -1 x14 + 1 x33 <= -26
C834: 1 x14 + -1 x34 <= -13
C835: 1 x14 + -1 x60 <= -13
C836: 1 x14 + -1 x5 <= -13
C837: 1 x14 + -1 x3 <= -13
C838: 1 x14 + -1 x0 <= -13
C839: -1 x14 + 1 x11 <= -13
C840: 1 x14 + -1 x19 <= -13
C841: 1 x14 + -1 x16 <= -13
C842: 1 x14 + -1 x23 <= -13
C843: 1 x14 + -1 x7 <= -13
C844: 1 x14 + -1 x15 <= -13
C845: 1 x14 + -1 x24 <= -13
C846: -1 x6 + 1 x38 <= -26
C847: -1 x6 + 1 x32 <= -26
C848: -1 x6 + 1 x8 <= -13
C849: -1 x6 + 1 x33 <= -26
C850: -1 x6 + 1 x34 <= -26
C851: -1 x6 + 1 x55 <= -22
C852: -1 x6 + 1 x60 <= -22
C853: -1 x6 + 1 x5 <= -14
C854: -1 x6 + 1 x3 <= -14
C855: -1 x6 + 1 x0 <= -14
C856: -1 x6 + 1 x11 <= -13
C857: -1 x6 + 1 x21 <= -13
C858: -1 x6 + 1 x10 <= -13
C859: -1 x6 + 1 x12 <= -13
C860: -1 x6 + 1 x19 <= -13
C861: -1 x6 + 1 x16 <= -13
C862: -1 x6 + 1 x23 <= -13
C863: -1 x6 + 1 x7 <= -13
C864: -1 x38 + 1 x32 <= -26
C865: 1 x38 + -1 x8 <= -26
C866: 1 x38 + -1 x33 <= -26
C867: 1 x38 + -1 x34 <= -26
C868: 1 x38 + -1 x55 <= -26
C869: 1 x38 + -1 x60 <= -26
C870: 1 x38 + -1 x5 <= -26
C871: 1 x38 + -1 x3 <= -26
C872: 1 x38 + -1 x0 <= -26
C873: 1 x38 + -1 x11 <= -26
C874: 1 x38 + -1 x21 <= -26
C875: 1 x38 + -1 x10 <= -26
C876: 1 x38 + -1 x12 <= -26
C877: 1 x38 + -1 x19 <= -26
C878: 1 x38 + -1 x16 <= -26
C879: 1 x38 + -1 x23 <= -26
C880: 1 x38 + -1 x7 <= -26
C881: 1 x38 + -1 x15 <= -26
C882: 1 x38 + -1 x24 <= -26
C883: 1 x32 + -1 x8 <= -26
C884: 1 x32 + -1 x33 <= -26
C885: 1 x32 + -1 x34 <= -26
C886: 1 x32 + -1 x55 <= -26
C887: 1 x32 + -1 x60 <= -26
C888: 1 x32 + -1 x5 <= -26
C889: 1 x32 + -1 x3 <= -26
C890: 1 x32 + -1 x0 <= -26
C891: 1 x32 + -1 x11 <= -26
C892: 1 x32 + -1 x21 <= -26
C893: 1 x32 + -1 x10 <= -26
C894: 1 x32 + -1 x12 <= -26
C895: 1 x32 + -1 x19 <= -26
C896: 1 x32 + -1 x16 <= -26
C897: 1 x32 + -1 x23 <= -26
C898: 1 x32 + -1 x7 <= -26
C899: 1 x32 + -1 x15 <= -26
C900: 1 x32 + -1 x24 <= -26
C901: -1 x8 + 1 x33 <= -26
C902: 1 x8 + -1 x34 <= -13
C903: -1 x8 + 1 x55 <= -22
C904: 1 x8 + -1 x60 <= -13
C905: -1 x8 + 1 x5 <= -14
C906: 1 x8 + -1 x0 <= -13
C907: -1 x8 + 1 x11 <= -13
C908: -1 x8 + 1 x21 <= -13
C909: -1 x8 + 1 x10 <= -13
C910: -1 x8 + 1 x12 <= -13
C911: 1 x8 + -1 x16 <= -13
C912: 1 x8 + -1 x23 <= -13
C913: 1 x8 + -1 x7 <= -13
C914: 1 x8 + -1 x15 <= -13
C915: 1 x8 + -1 x24 <= -13
C916: 1 x33 + -1 x34 <= -26
C917: 1 x33 + -1 x55 <= -26
C918: 1 x33 + -1 x60 <= -26
C919: 1 x33 + -1 x5 <= -26
C920: 1 x33 + -1 x3 <= -26
C921: 1 x33 + -1 x0 <= -26
C922: -1 x33 + 1 x11 <= -13
C923: 1 x33 + -1 x21 <= -26
C924: 1 x33 + -1 x10 <= -26
C925: 1 x33 + -1 x12 <= -26
C926: 1 x33 + -1 x19 <= -26
C927: 1 x33 + -1 x16 <= -26
C928: 1 x33 + -1 x23 <= -26
C929: 1 x33 + -1 x7 <= -26
C930: 1 x33 + -1 x15 <= -26
C931: 1 x33 + -1 x24 <= -26
C932: -1 x34 + 1 x55 <= -22
C933: -1 x34 + 1 x60 <= -22
C934: -1 x34 + 1 x5 <= -14
C935: -1 x34 + 1 x3 <= -14
C936: -1 x34 + 1 x0 <= -14
C937: -1 x34 + 1 x11 <= -13
C938: -1 x34 + 1 x21 <= -13
C939: -1 x34 + 1 x10 <= -13
C940: -1 x34 + 1 x12 <= -13
C941: -1 x34 + 1 x19 <= -13
C942: -1 x34 + 1 x16 <= -13
C943: -1 x34 + 1 x23 <= -13
C944: -1 x34 + 1 x7 <= -13
C945: 1 x34 + -1 x15 <= -26
C946: 1 x34 + -1 x24 <= -26
C947: 1 x55 + -1 x60 <= -22
C948: 1 x55 + -1 x5 <= -22
C949: 1 x55 + -1 x3 <= -22
C950: 1 x55 + -1 x0 <= -22
C951: -1 x55 + 1 x11 <= -13
C952: 1 x55 + -1 x21 <= -22
C953: 1 x55 + -1 x10 <= -22
C954: 1 x55 + -1 x12 <= -22
C955: 1 x55 + -1 x19 <= -22
C956: 1 x55 + -1 x16 <= -22
C957: 1 x55 + -1 x23 <= -22
C958: 1 x55 + -1 x7 <= -22
C959: 1 x55 + -1 x15 <= -22
C960: 1 x55 + -1 x24 <= -22
C961: -1 x60 + 1 x5 <= -14
C962: -1 x60 + 1 x3 <= -14
C963: 1 x60 + -1 x0 <= -22
C964: -1 x60 + 1 x11 <= -13
C965: -1 x60 + 1 x21 <= -13
C966: -1 x60 + 1 x10 <= -13
C967: -1 x60 + 1 x12 <= -13
C968: -1 x60 + 1 x19 <= -13
C969: -1 x60 + 1 x16 <= -13
C970: 1 x60 + -1 x23 <= -22
C971: 1 x60 + -1 x7 <= -22
C972: 1 x60 + -1 x15 <= -22
C973: 1 x60 + -1 x24 <= -22
C974: 1 x5 + -1 x3 <= -14
C975: 1 x5 + -1 x0 <= -14
C976: -1 x5 + 1 x11 <= -13
C977: -1 x5 + 1 x21 <= -13
C978: -1 x5 + 1 x10 <= -13
C979: -1 x5 + 1 x12 <= -13
C980: 1 x5 + -1 x19 <= -14
C981: 1 x5 + -1 x16 <= -14
C982: 1 x5 + -1 x23 <= -14
C983: 1 x5 + -1 x7 <= -14
C984: 1 x5 + -1 x15 <= -14
C985: 1 x5 + -1 x24 <= -14
C986: 1 x3 + -1 x0 <= -14
C987: -1 x3 + 1 x11 <= -13
C988: -1 x3 + 1 x21 <= -13
C989: -1 x3 + 1 x10 <= -13
C990: -1 x3 + 1 x12 <= -13
C991: -1 x3 + 1 x19 <= -13
C992: 1 x3 + -1 x23 <= -14
C993: 1 x3 + -1 x7 <= -14
C994: 1 x3 + -1 x15 <= -14
C995: 1 x3 + -1 x24 <= -14
C996: -1 x0 + 1 x11 <= -13
C997: -1 x0 + 1 x21 <= -13
C998: -1 x0 + 1 x10 <= -13
C999: -1 x0 + 1 x12 <= -13
C1000: -1 x0 + 1 x19 <= -13
C1001: -1 x0 + 1 x16 <= -13
C1002: -1 x0 + 1 x23 <= -13
C1003: -1 x0 + 1 x7 <= -13
C1004: 1 x0 + -1 x15 <= -14
C1005: 1 x0 + -1 x24 <= -14
C1006: 1 x11 + -1 x21 <= -13
C1007: 1 x11 + -1 x10 <= -13
C1008: 1 x11 + -1 x12 <= -13
C1009: 1 x11 + -1 x19 <= -13
C1010: 1 x11 + -1 x16 <= -13
C1011: 1 x11 + -1 x23 <= -13
C1012: 1 x11 + -1 x7 <= -13
C1013: 1 x11 + -1 x15 <= -13
C1014: 1 x11 + -1 x24 <= -13
C1015: 1 x21 + -1 x10 <= -13
C1016: 1 x21 + -1 x12 <= -13
C1017: 1 x21 + -1 x19 <= -13
C1018: 1 x21 + -1 x16 <= -13
C1019: 1 x21 + -1 x23 <= -13
C1020: 1 x21 + -1 x7 <= -13
C1021: 1 x21 + -1 x15 <= -13
C1022: 1 x21 + -1 x24 <= -13
C1023: 1 x10 + -1 x12 <= -13
C1024: 1 x10 + -1 x19 <= -13
C1025: 1 x10 + -1 x16 <= -13
C1026: 1 x10 + -1 x23 <= -13
C1027: 1 x10 + -1 x7 <= -13
C1028: 1 x10 + -1 x15 <= -13
C1029: 1 x10 + -1 x24 <= -13
C1030: 1 x12 + -1 x19 <= -13
C1031: 1 x12 + -1 x16 <= -13
C1032: 1 x12 + -1 x23 <= -13
C1033: 1 x12 + -1 x7 <= -13
C1034: 1 x12 + -1 x15 <= -13
C1035: 1 x12 + -1 x24 <= -13
C1036: 1 x19 + -1 x23 <= -13
C1037: 1 x19 + -1 x7 <= -13
C1038: 1 x19 + -1 x15 <= -13
C1039: 1 x19 + -1 x24 <= -13
C1040: 1 x16 + -1 x23 <= -13
C1041: 1 x16 + -1 x7 <= -13
C1042: 1 x16 + -1 x15 <= -13
C1043: 1 x16 + -1 x24 <= -13
C1044: 1 x23 + -1 x7 <= -13
C1045: 1 x23 + -1 x15 <= -13
C1046: 1 x23 + -1 x24 <= -13
C1047: 1 x7 + -1 x15 <= -13
C1048: 1 x7 + -1 x24 <= -13
C1049: 1 x15 + -1 x24 <= -13
C1050: -1 x1 + 1 l1 <= 0
C1051: -1 x1 + 1 u1 >= 0
C1052: -1 x49 + 1 l49 <= 0
C1053: -1 x49 + 1 u49 >= 0
C1054: -1 x48 + 1 l48 <= 0
C1055: -1 x48 + 1 u48 >= 0
C1056: -1 x22 + 1 l22 <= 0
C1057: -1 x22 + 1 u22 >= 0
C1058: -1 x20 + 1 l20 <= 0
C1059: -1 x20 + 1 u20 >= 0
C1060: -1 x17 + 1 l17 <= 0
C1061: -1 x17 + 1 u17 >= 0
C1062: -1 x18 + 1 l18 <= 0
C1063: -1 x18 + 1 u18 >= 0
C1064: -1 x2 + 1 l2 <= 0
C1065: -1 x2 + 1 u2 >= 0
C1066: -1 x54 + 1 l54 <= 0
C1067: -1 x54 + 1 u54 >= 0
C1068: -1 x62 + 1 l62 <= 0
C1069: -1 x62 + 1 u62 >= 0
C1070: -1 x40 + 1 l40 <= 0
C1071: -1 x40 + 1 u40 >= 0
C1072: -1 x41 + 1 l41 <= 0
C1073: -1 x41 + 1 u41 >= 0
C1074: -1 x47 + 1 l47 <= 0
C1075: -1 x47 + 1 u47 >= 0
C1076: -1 x50 + 1 l50 <= 0
C1077: -1 x50 + 1 u50 >= 0
C1078: -1 x4 + 1 l4 <= 0
C1079: -1 x4 + 1 u4 >= 0
C1080: -1 x31 + 1 l31 <= 0
C1081: -1 x31 + 1 u31 >= 0
C1082: -1 x58 + 1 l58 <= 0
C1083: -1 x58 + 1 u58 >= 0
C1084: -1 x27 + 1 l27 <= 0
C1085: -1 x27 + 1 u27 >= 0
C1086: -1 x39 + 1 l39 <= 0
C1087: -1 x39 + 1 u39 >= 0
C1088: -1 x25 + 1 l25 <= 0
C1089: -1 x25 + 1 u25 >= 0
C1090: -1 x36 + 1 l36 <= 0
C1091: -1 x36 + 1 u36 >= 0
C1092: -1 x45 + 1 l45 <= 0
C1093: -1 x45 + 1 u45 >= 0
C1094: -1 x51 + 1 l51 <= 0
C1095: -1 x51 + 1 u51 >= 0
C1096: -1 x35 + 1 l35 <= 0
C1097: -1 x35 + 1 u35 >= 0
C1098: -1 x44 + 1 l44 <= 0
C1099: -1 x44 + 1 u44 >= 0
C1100: -1 x57 + 1 l57 <= 0
C1101: -1 x57 + 1 u57 >= 0
C1102: -1 x29 + 1 l29 <= 0
C1103: -1 x29 + 1 u29 >= 0
C1104: -1 x26 + 1 l26 <= 0
C1105: -1 x26 + 1 u26 >= 0
C1106: -1 x37 + 1 l37 <= 0
C1107: -1 x37 + 1 u37 >= 0
C1108: -1 x46 + 1 l46 <= 0
C1109: -1 x46 + 1 u46 >= 0
C1110: -1 x42 + 1 l42 <= 0
C1111: -1 x42 + 1 u42 >= 0
C1112: -1 x52 + 1 l52 <= 0
C1113: -1 x52 + 1 u52 >= 0
C1114: -1 x53 + 1 l53 <= 0
C1115: -1 x53 + 1 u53 >= 0
C1116: -1 x59 + 1 l59 <= 0
C1117: -1 x59 + 1 u59 >= 0
C1118: -1 x43 + 1 l43 <= 0
C1119: -1 x43 + 1 u43 >= 0
C1120: -1 x13 + 1 l13 <= 0
C1121: -1 x13 + 1 u13 >= 0
C1122: -1 x56 + 1 l56 <= 0
C1123: -1 x56 + 1 u56 >= 0
C1124: -1 x61 + 1 l61 <= 0
C1125: -1 x61 + 1 u61 >= 0
C1126: -1 x28 + 1 l28 <= 0
C1127: -1 x28 + 1 u28 >= 0
C1128: -1 x30 + 1 l30 <= 0
C1129: -1 x30 + 1 u30 >= 0
C1130: -1 x9 + 1 l9 <= 0
C1131: -1 x9 + 1 u9 >= 0
C1132: -1 x14 + 1 l14 <= 0
C1133: -1 x14 + 1 u14 >= 0
C1134: -1 x6 + 1 l6 <= 0
C1135: -1 x6 + 1 u6 >= 0
C1136: -1 x38 + 1 l38 <= 0
C1137: -1 x38 + 1 u38 >= 0
C1138: -1 x32 + 1 l32 <= 0
C1139: -1 x32 + 1 u32 >= 0
C1140: -1 x8 + 1 l8 <= 0
C1141: -1 x8 + 1 u8 >= 0
C1142: -1 x33 + 1 l33 <= 0
C1143: -1 x33 + 1 u33 >= 0
C1144: -1 x34 + 1 l34 <= 0
C1145: -1 x34 + 1 u34 >= 0
C1146: -1 x55 + 1 l55 <= 0
C1147: -1 x55 + 1 u55 >= 0
C1148: -1 x60 + 1 l60 <= 0
C1149: -1 x60 + 1 u60 >= 0
C1150: -1 x5 + 1 l5 <= 0
C1151: -1 x5 + 1 u5 >= 0
C1152: -1 x3 + 1 l3 <= 0
C1153: -1 x3 + 1 u3 >= 0
C1154: -1 x0 + 1 l0 <= 0
C1155: -1 x0 + 1 u0 >= 0
C1156: -1 x11 + 1 l11 <= 0
C1157: -1 x11 + 1 u11 >= 0
C1158: -1 x21 + 1 l21 <= 0
C1159: -1 x21 + 1 u21 >= 0
C1160: -1 x10 + 1 l10 <= 0
C1161: -1 x10 + 1 u10 >= 0
C1162: -1 x12 + 1 l12 <= 0
C1163: -1 x12 + 1 u12 >= 0
C1164: -1 x19 + 1 l19 <= 0
C1165: -1 x19 + 1 u19 >= 0
C1166: -1 x16 + 1 l16 <= 0
C1167: -1 x16 + 1 u16 >= 0
C1168: -1 x23 + 1 l23 <= 0
C1169: -1 x23 + 1 u23 >= 0
C1170: -1 x7 + 1 l7 <= 0
C1171: -1 x7 + 1 u7 >= 0
C1172: -1 x15 + 1 l15 <= 0
C1173: -1 x15 + 1 u15 >= 0
C1174: -1 x24 + 1 l24 <= 0
C1175: -1 x24 + 1 u24 >= 0
Bounds
0 <= x1 <= 382
0 <= x49 <= 374
0 <= x48 <= 374
0 <= x22 <= 383
0 <= x20 <= 383
0 <= x17 <= 383
0 <= x18 <= 383
0 <= x2 <= 382
0 <= x54 <= 374
0 <= x62 <= 374
0 <= x40 <= 312
0 <= x41 <= 312
0 <= x47 <= 374
0 <= x50 <= 374
0 <= x4 <= 382
0 <= x31 <= 370
0 <= x58 <= 374
0 <= x27 <= 370
0 <= x39 <= 312
0 <= x25 <= 383
0 <= x36 <= 370
0 <= x45 <= 374
0 <= x51 <= 374
0 <= x35 <= 370
0 <= x44 <= 337
0 <= x57 <= 374
0 <= x29 <= 370
0 <= x26 <= 383
0 <= x37 <= 370
0 <= x46 <= 374
0 <= x42 <= 337
0 <= x52 <= 374
0 <= x53 <= 374
0 <= x59 <= 374
0 <= x43 <= 337
0 <= x13 <= 383
0 <= x56 <= 374
0 <= x61 <= 374
0 <= x28 <= 370
0 <= x30 <= 370
0 <= x9 <= 383
0 <= x14 <= 383
0 <= x6 <= 383
0 <= x38 <= 370
0 <= x32 <= 370
0 <= x8 <= 383
0 <= x33 <= 370
0 <= x34 <= 370
0 <= x55 <= 374
0 <= x60 <= 374
0 <= x5 <= 382
0 <= x3 <= 382
0 <= x0 <= 382
0 <= x11 <= 383
0 <= x21 <= 383
0 <= x10 <= 383
0 <= x12 <= 383
0 <= x19 <= 383
0 <= x16 <= 383
0 <= x23 <= 383
0 <= x7 <= 383
0 <= x15 <= 383
0 <= x24 <= 383
0 <= l1 <= 175
0 <= l49 <= 244
0 <= l48 <= 265
0 <= l22 <= 111
0 <= l20 <= 126
0 <= l17 <= 157
0 <= l18 <= 193
0 <= l2 <= 139
0 <= l54 <= 213
0 <= l62 <= 225
0 <= l40 <= 34
0 <= l41 <= 286
0 <= l47 <= 127
0 <= l50 <= 187
0 <= l4 <= 164
0 <= l31 <= 253
0 <= l58 <= 229
0 <= l27 <= 199
0 <= l39 <= 124
0 <= l25 <= 228
0 <= l36 <= 260
0 <= l45 <= 240
0 <= l51 <= 223
0 <= l35 <= 304
0 <= l44 <= 337
0 <= l57 <= 65
0 <= l29 <= 90
0 <= l26 <= 269
0 <= l37 <= 280
0 <= l46 <= 227
0 <= l42 <= 10
0 <= l52 <= 369
0 <= l53 <= 255
0 <= l59 <= 190
0 <= l43 <= 122
0 <= l13 <= 88
0 <= l56 <= 314
0 <= l61 <= 226
0 <= l28 <= 277
0 <= l30 <= 195
0 <= l9 <= 253
0 <= l14 <= 164
0 <= l6 <= 356
0 <= l38 <= 44
0 <= l32 <= 14
0 <= l8 <= 222
0 <= l33 <= 98
0 <= l34 <= 326
0 <= l55 <= 159
0 <= l60 <= 254
0 <= l5 <= 219
0 <= l3 <= 247
0 <= l0 <= 309
0 <= l11 <= 78
0 <= l21 <= 181
0 <= l10 <= 191
0 <= l12 <= 205
0 <= l19 <= 222
0 <= l16 <= 235
0 <= l23 <= 279
0 <= l7 <= 294
0 <= l15 <= 361
0 <= l24 <= 375
175 <= u1 <= 396
244 <= u49 <= 396
265 <= u48 <= 396
111 <= u22 <= 396
126 <= u20 <= 396
157 <= u17 <= 396
193 <= u18 <= 396
139 <= u2 <= 396
213 <= u54 <= 396
225 <= u62 <= 396
34 <= u40 <= 396
286 <= u41 <= 396
127 <= u47 <= 396
187 <= u50 <= 396
164 <= u4 <= 396
253 <= u31 <= 396
229 <= u58 <= 396
199 <= u27 <= 396
124 <= u39 <= 396
228 <= u25 <= 396
260 <= u36 <= 396
240 <= u45 <= 396
223 <= u51 <= 396
304 <= u35 <= 396
337 <= u44 <= 396
65 <= u57 <= 396
90 <= u29 <= 396
269 <= u26 <= 396
280 <= u37 <= 396
227 <= u46 <= 396
10 <= u42 <= 396
369 <= u52 <= 396
255 <= u53 <= 396
190 <= u59 <= 396
122 <= u43 <= 396
88 <= u13 <= 396
314 <= u56 <= 396
226 <= u61 <= 396
277 <= u28 <= 396
195 <= u30 <= 396
253 <= u9 <= 396
164 <= u14 <= 396
356 <= u6 <= 396
44 <= u38 <= 396
14 <= u32 <= 396
222 <= u8 <= 396
98 <= u33 <= 396
326 <= u34 <= 396
159 <= u55 <= 396
254 <= u60 <= 396
219 <= u5 <= 396
247 <= u3 <= 396
309 <= u0 <= 396
78 <= u11 <= 396
181 <= u21 <= 396
191 <= u10 <= 396
205 <= u12 <= 396
222 <= u19 <= 396
235 <= u16 <= 396
279 <= u23 <= 396
294 <= u7 <= 396
361 <= u15 <= 396
375 <= u24 <= 396
Generals
End
